 # Version information for this restart file 
 # current date 2024-11-21 21:42:31.506
 # current working dir /home/yhp2008/comp-lab-class-2024/Week12-IntroAIMD/Proton
 # Program compiled at                              Sat Dec 12 18:27:15 EST 2020
 # Program compiled on                                         cs001.nyu.cluster
 # Program compiled for                                                nyu-intel
 # Source code revision number                                       git:8c64c6e
 &GLOBAL
   PRINT_LEVEL  LOW
   PROJECT_NAME proton_aimd_1ns_every0.5fs
   RUN_TYPE  MD
   WALLTIME 21600
 &END GLOBAL
 &MOTION
   &GEO_OPT
     OPTIMIZER  BFGS
     MAX_ITER  100
     MAX_DR     3.0000000000000001E-03
     &BFGS
     &END BFGS
   &END GEO_OPT
   &MD
     ENSEMBLE  NVT
     STEPS  2000
     TIMESTEP     4.9999999999999994E-01
     STEP_START_VAL  45
     TIME_START_VAL     2.2500000000000014E+01
     ECONS_START_VAL    -1.1026316107807854E+03
     TEMPERATURE     3.0000000000000000E+02
     &THERMOSTAT
       TYPE  GLE
       REGION  MASSIVE
       &GLE
         NDIM  5
         A_SCALE     1.0000000000000000E+00
         A_LIST     1.8595758612559999E+02    2.7263853498399998E-01    1.1526100454610001E+01   -3.6414578262600003E+01 \
             2.3173375816020001E+02
         A_LIST    -2.7809524712060002E-01    8.5951591808710006E-05    7.2189048017650004E-01   -1.9844539343859999E-01 \
             4.2409257583420001E-01
         A_LIST    -1.4825808131210000E+01   -7.2189048017650004E-01    1.3590902121280000E+00    5.1498896280349999E+00 \
            -9.9949268450990001E+00
         A_LIST    -1.0372189126880000E+01    1.9844539343859999E-01   -5.1498896280349999E+00    2.6661910891169999E+01 \
             1.1507715495310000E+01
         A_LIST     2.1801346360420001E+02   -4.2409257583420001E-01    9.9949268450990001E+00   -1.1507715495310000E+01 \
             3.0958394565589998E+02
         &THERMOSTAT_ENERGY
              -6.6161995201036530E-04
              -2.4007446822812162E-04
               1.9178220257289933E-04
              -1.2368718499130541E-03
              -1.3217401890831166E-03
               2.8807929686497143E-03
               4.6609893415386702E-04
               1.9233712203424159E-03
               1.1912777112993464E-03
               2.2690869176729975E-04
               5.6407930712894575E-04
               9.7575126454052367E-04
               2.7199802796519391E-03
               4.7867251724141569E-04
               7.5633429528687394E-04
               4.1703290901371447E-04
              -4.7856867304953507E-04
               1.1123991912573928E-03
              -3.4508630001223184E-04
               8.0529808262634020E-04
              -1.4073198096483475E-03
               1.0425744992385200E-03
              -5.1517259897252451E-04
              -9.0261250687840786E-04
               6.3725415666796036E-04
              -7.4792314126725587E-04
               3.4872118871088294E-04
               2.4887770796742257E-03
               2.0954363683734689E-03
               1.7569705413914179E-03
               2.6662992140926448E-02
               9.4615921783448628E-03
               9.6851108902045978E-03
               6.1496513808747622E-04
               2.4164390177421812E-03
               3.9431325572092894E-03
               6.5880451365186131E-04
              -5.9408723431234999E-04
              -7.6327931251466595E-05
               1.7441331602228116E-05
              -1.3722000045461912E-03
              -2.3297882474112366E-03
              -2.1711728169478950E-03
               1.8781433736262607E-03
              -1.2189541632529517E-03
               2.0909715550159356E-03
               4.7182399702255426E-04
              -8.5415676746010037E-04
               1.7129775822361871E-03
               3.4787769955439246E-04
              -6.3204717712365423E-04
              -6.3792040976667753E-05
              -3.9026595332122767E-04
              -1.6380612056154389E-03
              -7.3845755648890951E-04
              -3.2270503674798227E-04
              -5.9105824874866684E-04
               9.4919292280176140E-05
              -9.7919199516073759E-04
               1.7418502125543837E-04
               1.1078267013326553E-03
               1.2055973068125188E-03
               3.7710827493404203E-04
               1.4681225118877241E-03
              -1.4048955016562515E-03
               1.1980318140276211E-03
              -3.7972458157857833E-04
              -3.9859735879031575E-04
               1.8178140850593418E-03
               4.4137543792304557E-04
              -7.9027430253668027E-04
               2.1222990103493093E-03
              -8.6169764849816806E-04
               4.7170501758540709E-04
               1.5406124098743009E-04
              -5.2078811183828776E-04
               1.0481250537623136E-03
               1.1697440582764044E-03
               4.1226679320063757E-03
              -4.9561312797808288E-04
               7.1117548120680033E-05
              -1.0460830440336123E-04
              -1.5525233051058443E-04
              -1.4733627005051903E-03
              -1.5317670361022644E-04
               9.3668504849211433E-04
              -9.9159992050426690E-04
              -1.8771942111130827E-03
              -7.6678304286267895E-04
              -8.5957427953747443E-04
               2.0760590479827713E-03
               3.0213986489620406E-03
              -1.7777871995886207E-03
              -2.7982887835722959E-04
              -6.6276927070381907E-04
               9.4574095945653823E-04
              -4.2916821616273193E-04
              -1.8207573367604209E-03
               1.2339662551119946E-03
              -1.3599880994262482E-04
              -1.0262251212121948E-03
               1.9306408958205071E-04
              -4.1171827177650667E-04
               2.0612921558315843E-03
               3.7472791178810643E-04
               5.5795400326637051E-05
               5.8041285382488806E-04
              -1.3715228626540320E-04
               1.2296357450571459E-03
               3.9621686697046950E-04
               5.3143622981180797E-04
               7.7672723849089669E-04
               1.3461923027304490E-03
               3.3484147902261270E-04
               8.4380327702441053E-04
               1.3665151589164696E-03
              -7.0273580503493671E-03
               1.2800827193792162E-03
               9.7721554344706450E-04
               6.4597230726986632E-04
              -3.9834169268799407E-04
              -2.6933266380206269E-04
               2.5775170671096283E-03
              -2.0826552686263545E-04
              -1.2047555720973160E-04
              -2.2078069892003142E-03
              -6.6544828132050337E-04
               2.1147476275264442E-03
              -2.8216739321192363E-05
               4.8474231055267182E-04
              -3.3617489151606147E-03
              -2.4172986165930527E-03
               2.5006729034672934E-03
              -9.9816490023442927E-04
              -1.4320547952561050E-03
              -3.5951500948448842E-04
               2.3438351444529985E-04
               7.6270579988328170E-04
               7.9463654654865457E-04
               3.9966594857895698E-04
               2.4021763863524646E-03
               3.0652749941685706E-04
              -1.1771697453794487E-03
               2.8781866644500402E-04
               9.0385167902314652E-04
              -1.0225281416355639E-04
               6.1282345288744084E-04
              -6.3093018866615717E-04
              -1.6245609636473130E-05
              -1.7870209532215553E-04
              -4.3667598782493088E-04
               3.9358904018010649E-04
              -7.3288009499354514E-04
               5.2903360860742990E-04
               1.4951033281080709E-04
               3.0877315381658445E-04
               2.4737025968700021E-04
              -2.3556996492144256E-04
               1.4451269591980308E-04
              -2.9740595350095640E-04
              -7.4363385362707793E-04
              -1.1523121983674609E-03
              -6.2365715526467808E-04
               4.4064333996002194E-04
               3.2160665205825563E-03
               1.0933450354821475E-03
               1.2343224482290916E-03
               1.0533680298036403E-03
              -2.7787186294948442E-03
               1.2929514839629067E-03
               7.6166253492886355E-04
              -6.8809991735099764E-04
              -4.1763011017914104E-04
              -2.0874809598302589E-04
              -2.0470415884723219E-04
              -6.9648528165900693E-04
               2.6785302660921159E-03
              -1.5658114015858144E-03
               1.4979725669446095E-04
               1.6411199891039816E-03
              -4.4365260497528927E-04
              -1.3693391964070328E-03
              -1.0306880342301090E-04
               2.4435142127256998E-03
               3.7484532356771907E-04
               2.6957588668392380E-04
              -1.0041144634460105E-03
              -4.1938532112906289E-04
              -3.7871356370952017E-03
               6.8151009603306353E-04
               2.9651648170825079E-04
              -8.1663861724434587E-04
               1.7295196331429687E-03
              -1.0914919257935189E-03
              -1.8065579987499447E-04
              -4.0212420464600393E-03
              -2.1023053125623507E-04
               3.5179185120481449E-04
               6.1015109672365900E-04
              -4.3557999806706775E-04
               5.1756118438013056E-05
              -4.8541373826973705E-05
               1.2518632236063853E-03
               3.1826209389769207E-04
              -3.1512565160013899E-03
              -5.6210083267219850E-04
               8.0756571101787446E-04
               9.9477407671345257E-04
               1.0596094925862242E-03
               2.2261390485722164E-03
              -6.8601117335430589E-04
               9.8919864175244540E-04
               1.5581228521951299E-03
              -2.2542077193324064E-03
               2.9496722317820452E-04
               1.9189921360481693E-03
              -7.4377396242955899E-04
               7.8733913963573252E-04
               3.3516692433231541E-04
              -5.7282046586789367E-04
               2.4759113155873409E-03
              -6.7254173091475583E-04
               1.2922176278814493E-03
               2.5657130753304073E-04
              -1.0140184158185904E-04
               5.1471966656318308E-04
              -2.7791170091084341E-04
              -3.9180368762008948E-04
               2.3919933124266681E-04
               3.4613356176207187E-03
               7.9719471090931076E-05
               2.0006354536051050E-03
              -2.1121441295089227E-04
              -4.0944652191396625E-05
               2.6379834944262532E-05
              -2.4051025550201688E-03
              -2.0035500675646307E-03
               1.6384341628367940E-04
               2.7731488677669078E-04
               8.4172964715450277E-04
               1.3967801338847622E-03
              -5.7353928249217795E-04
               1.8803293528731552E-03
               1.3486457136907262E-03
              -1.3119266506452236E-04
              -3.7570771188531141E-04
              -5.1071355558952804E-04
               2.8856444118701091E-04
               1.2348763179636081E-04
              -2.2404868414768494E-03
               1.0682175157262360E-03
               9.1354917828662043E-04
              -7.2855665889933635E-04
               6.2828197826610046E-04
              -5.6071254151919526E-04
              -1.2547307943932358E-03
              -5.1321534001980959E-05
              -4.5631604788770960E-04
               1.6090390274610660E-04
              -3.0903704699923107E-04
               7.1397421037079883E-04
               2.9048514409847989E-04
              -1.2311383207629745E-03
               1.7873589075539501E-03
               1.0172909086451829E-03
               5.5774911832726819E-04
              -4.3818875766599727E-04
               1.0092101829495801E-04
              -1.6282841204505896E-03
              -2.3957768003281836E-03
              -6.3411140562114683E-04
               2.6769475359144919E-04
               6.2198458105635539E-04
              -5.7243128970431857E-04
              -1.2144308010995672E-03
               1.1970242746632929E-03
              -1.2282371141687340E-04
              -1.0402280703196979E-04
              -5.2834733042289247E-04
               1.7834927188603599E-04
              -2.9333537645257748E-04
              -4.4701784541064548E-04
              -1.2535959214646510E-04
               3.3968206114478884E-04
              -9.3157450852698236E-04
               4.4170626088963671E-04
              -1.6848108958392822E-03
              -3.4542095065304731E-04
              -1.0475087267755756E-03
              -3.7505014675534728E-05
              -1.4250248796982821E-03
               2.1216799747915184E-03
              -1.6021283217889034E-03
               1.1810743898199422E-03
               5.9430511883524638E-04
              -3.4429117079499467E-04
               3.6461192289580474E-04
               1.3733355831903392E-04
              -6.3265460421123776E-04
               7.3875035399633012E-04
               1.7862331117760614E-03
               6.3797422720374001E-04
              -1.0296799537628733E-03
              -6.4524477151330951E-04
               2.8526487773650124E-03
              -8.3924002357910893E-04
              -2.6748711771054558E-04
              -6.6496740537330820E-05
              -2.3920514190815521E-04
              -1.4652898436454777E-03
              -4.8439569501039156E-05
              -7.9097254869653724E-04
               2.5310555553021753E-03
               4.8300956437567701E-04
               1.2824297218787691E-03
               7.2431162028696204E-04
              -3.4148202639148009E-04
               1.2686488709761203E-03
              -8.2643362232896322E-05
              -7.6755552170035236E-04
              -4.9788783071572475E-04
              -1.1378259043398702E-03
               4.4669676294982876E-04
              -1.7193393502716234E-03
               5.1139361486129639E-04
              -3.7630368932336903E-04
               8.1197739800510649E-05
               2.5337390563642303E-03
              -8.7839551546778295E-04
              -1.4757904533334999E-03
              -2.4751389748651287E-03
              -4.7610943772875207E-04
               9.4850453676900183E-04
               1.6986031898920592E-03
               7.9043141466359683E-04
               8.9674524753614578E-04
               3.7842505122944593E-03
               2.0605231574159378E-03
              -1.8730798083607704E-03
               9.7802870645001322E-04
               8.1779033789491419E-05
              -4.7026863442723718E-04
               1.8555603064684526E-03
               4.8174394524740799E-04
               7.6397097625398823E-04
               1.2248486077841413E-03
              -4.0602418275116278E-04
              -7.3314456751660036E-04
              -6.2914582806396116E-04
               6.2618128353094965E-04
               8.8790883714621007E-05
               9.8306548605929446E-05
              -1.5160940237506537E-04
              -3.4283159105598349E-05
               2.1599652005371215E-04
              -2.3306404240193640E-03
               1.8909823093257634E-03
              -1.9759351856426057E-03
              -1.3465842484810784E-03
               1.3136144932240795E-03
              -1.7412409633261544E-04
              -3.4101647717894640E-04
              -1.8158257724148994E-04
              -1.1554089192962959E-03
               1.2751927912728008E-03
              -6.5661979253276033E-04
               1.1926437171164653E-03
              -4.9900615144103454E-05
              -2.2979616992761017E-03
              -8.4095979735000694E-04
              -4.3548625942343988E-05
              -4.1938794114931377E-04
               2.4841377900065341E-03
               7.4099310399926394E-05
              -1.4276236477566890E-03
              -3.5277228456031292E-03
               2.0378083834427414E-03
              -1.3998443153912269E-04
               1.3703544153251929E-03
               1.4299524159377801E-03
              -2.0316656271887330E-04
              -1.6834129264749137E-03
               2.4140701804126513E-03
              -3.2173374597844963E-05
              -2.2316882981492569E-03
               3.9501513854101061E-04
              -3.1996108358670018E-04
              -3.8643943727118962E-03
              -1.9266634133973813E-03
              -4.0354917118500552E-04
               6.8325048679534572E-04
              -5.4169161557039182E-04
              -1.1098831098560644E-03
              -1.0694061815144827E-03
              -1.5496912218338006E-03
              -4.2851672009285377E-04
              -2.0371908420561487E-03
               7.1879551006874879E-04
              -2.0786231867046595E-04
               5.1215190069387384E-05
              -2.9932522469127724E-03
               2.1012835768105496E-03
               4.1555423081438800E-04
               1.7189790253200571E-03
              -3.1978510303110578E-04
               1.9175471047443572E-04
              -6.0968378767513808E-04
               1.1088158869727873E-03
              -5.0096936428119633E-05
              -2.9068487223161065E-04
              -1.0045469024516757E-03
               1.0592908338195473E-03
               3.1432875188248537E-04
               1.3314657109845247E-03
              -1.0489761050928462E-03
              -7.1156071314502087E-04
               9.7153241526253833E-04
              -7.6597609631745274E-04
               9.3728156919665475E-04
              -8.1316522325474404E-04
               1.6137473185239904E-03
              -1.9662218389862669E-03
               8.7751414856723125E-04
               3.1133286012494155E-02
               1.7512582112255377E-02
               1.0514497698663399E-02
               2.5348302312132175E-03
              -1.5415608310595905E-03
               3.2123731206002925E-03
               7.8746824193421338E-04
              -1.9691321214575963E-03
               4.7086571094978749E-03
               1.0197294154832883E-02
               1.3940051464647874E-02
               1.6780534862808867E-03
               1.3017491524288758E-03
              -4.8504279598033599E-04
              -7.4834200773532560E-05
              -2.5071833974025467E-03
               4.0787867770236832E-04
               3.0427237790404488E-04
              -2.8300589471253238E-03
               5.1393165783767791E-04
              -1.1927028294210960E-03
              -1.3976841985415961E-03
              -2.0494106162374546E-04
               2.6524266888778853E-04
              -6.5055403282768655E-04
               2.5227091981324034E-03
               2.8828681630436287E-05
               2.0871844647078158E-03
              -3.4831829578723943E-03
               2.1002167006844989E-03
               9.1281959170961592E-04
               3.9465196785964474E-04
               4.0031468601248770E-05
               2.6087725836851665E-04
              -1.0081138799573723E-04
               2.0501501523091728E-03
              -9.6771369567246975E-04
               1.0118955714733826E-04
               3.0771688275973508E-05
              -3.1902394265449683E-03
              -9.0844885892024283E-04
               2.3180858819860373E-03
              -1.3071750954865957E-03
              -8.0171735589633104E-04
              -4.1987241342351700E-04
               2.0840827297792836E-03
               2.4620795354292923E-03
              -1.0211284382260766E-03
               1.0855452549405060E-03
               1.0962079118326858E-03
               2.9235113499083057E-04
               1.0707766833434233E-04
               1.3533399762454402E-03
               7.4700303456468671E-04
               4.5501840174663212E-04
              -5.1916124980014831E-04
               1.1770954089668861E-03
               2.9784137041081907E-03
              -2.8222159873717093E-04
               2.1608080101683798E-03
               3.6861270898957792E-03
              -2.1455619757095135E-05
              -6.4500288476623997E-04
              -1.7636334793673437E-03
              -1.2956856669422089E-03
               6.5089440897656513E-04
               3.6988475009810170E-04
               1.8024013940726890E-04
              -5.9051877966086923E-04
               1.1762218076849398E-04
              -1.2578402621716467E-03
               3.9236360114988775E-04
               1.2077932902706239E-03
               4.7517102131060477E-03
               2.4176842589574321E-03
              -2.3706994563345882E-04
               6.3805406188523293E-04
              -5.6881125089491271E-04
               2.3479949073549786E-04
               7.3756108784539087E-04
               7.7379533364968088E-04
               8.9882810635915408E-04
              -1.9445203158479695E-03
              -3.8859847137551044E-04
               3.0150734547321331E-04
              -2.1314501072094494E-05
              -9.5551419523478748E-05
               7.4317813725037409E-04
               3.7499841069010896E-04
              -2.4748297223040094E-04
              -2.9151606370308109E-03
               2.2755632585652191E-03
              -4.1964079095104466E-04
              -4.1920698266472616E-04
               1.8788120399182706E-03
               1.8672273447125473E-03
              -3.9787475883528334E-05
               5.6267244997147562E-04
               8.4594359359192381E-04
               5.8282827298092158E-04
              -2.0185849424211861E-03
               2.1151501595140988E-04
               2.7491875847758643E-04
               4.5215972811346950E-03
               2.2726981649670267E-03
               3.6077127494800461E-03
               1.5350541712870242E-04
              -7.1918194295087531E-05
              -1.9811511846506134E-03
               1.7946625075492160E-03
              -1.5635963349496210E-03
               1.0239949952524242E-03
               2.2747741271142143E-04
              -8.0064726161992758E-05
               1.1350117580068578E-03
               3.9313764255243915E-04
              -9.6405027200527512E-04
              -7.1314830117113332E-04
              -2.3283997340847080E-03
              -1.3333094627236066E-03
              -4.9093576991707754E-04
              -1.5057333931832624E-04
              -4.7737271774454224E-04
              -3.2319855373701573E-04
               2.0971339682746104E-04
               1.2244728553297128E-03
               1.2866230644551025E-03
               2.9233030452603610E-04
              -8.5297903409882188E-04
              -4.7127204906966067E-04
              -5.2205975661066839E-04
              -3.0232956812790144E-04
              -4.0796365614715092E-03
               3.0851393338753039E-03
               6.9666735144019898E-05
               4.3657148407699525E-03
               2.1096580351487836E-03
               1.6176814257271820E-03
               1.5623518282824674E-03
              -3.2936887468322539E-04
               7.3292761232544856E-04
               6.0308612543578835E-04
              -2.5759234125671821E-04
              -7.5851698541545766E-04
              -1.9094540104348827E-03
               2.7652920826027634E-04
               2.7846076420183019E-04
              -1.2003884954256950E-03
               1.4159714878743549E-03
               7.8317330202570161E-04
              -4.6756474099048269E-04
               2.1810595727296046E-03
              -1.6023190636579414E-03
               1.8231845438696549E-03
              -6.7422666464339045E-04
               3.5381617922735872E-04
         &END THERMOSTAT_ENERGY
         &RNG_INIT
Wiener process for Thermostat # 1        1 F T T  -6.0328108354411791E-01        1695715228.0        1187713052.0        2920214580.0        4216551947.0        3814942231.0        2190794631.0             12345.0             12345.0             12345.0             12345.0             12345.0             12345.0             12345.0             12345.0             12345.0             12345.0             12345.0             12345.0
Wiener process for Thermostat # 2        1 F T T   8.1855754814909376E-01        3719556889.0         280277803.0          42413939.0        4115451539.0         813629577.0         411634864.0        3692455944.0        1366884236.0        2968912127.0         335948734.0        4161675175.0         475798818.0        3692455944.0        1366884236.0        2968912127.0         335948734.0        4161675175.0         475798818.0
Wiener process for Thermostat # 3        1 F T T  -6.3126388563114588E-02        1779675147.0        4102638108.0        2450046094.0         719647904.0        2160368009.0        2430510992.0        1015873554.0        1310354410.0        2249465273.0         994084013.0        2912484720.0        3876682925.0        1015873554.0        1310354410.0        2249465273.0         994084013.0        2912484720.0        3876682925.0
Wiener process for Thermostat # 4        1 F T T   2.6713954200121409E-01        3297783051.0        1407144630.0         150255760.0        2581813149.0        3104948572.0         279970741.0        2338701263.0        1119171942.0        2570676563.0         317077452.0        3194180850.0         618832124.0        2338701263.0        1119171942.0        2570676563.0         317077452.0        3194180850.0         618832124.0
Wiener process for Thermostat # 5        1 F T T  -2.3795083126018968E-01        3514254016.0        2347337091.0        4154181506.0        3934215154.0         667183156.0        2810122462.0        1597262096.0        3906379055.0        3312112953.0        1016013135.0        4099474108.0         275305423.0        1597262096.0        3906379055.0        3312112953.0        1016013135.0        4099474108.0         275305423.0
Wiener process for Thermostat # 6        1 F T T  -9.9092601086504706E-01        2652895413.0        2656018603.0        2650682930.0        3989668356.0        2052045615.0        2554042999.0          97147054.0        3131372450.0         829345164.0        3691032523.0        3006063034.0        4259826321.0          97147054.0        3131372450.0         829345164.0        3691032523.0        3006063034.0        4259826321.0
Wiener process for Thermostat # 7        1 F T T  -7.9197077703611518E-01        1995129171.0        2679018431.0        3095008622.0        2956711633.0        2195084526.0        2060821653.0         796079799.0        2105258207.0         955365076.0        2923159030.0        4116632677.0        3067683584.0         796079799.0        2105258207.0         955365076.0        2923159030.0        4116632677.0        3067683584.0
Wiener process for Thermostat # 8        1 F T T  -1.5257496901295875E+00        2023591102.0        2850444487.0         505940542.0        1215553868.0        1709838099.0        3901234084.0        3281794178.0        2616230133.0        1457051261.0        2762791137.0        2480527362.0        2282316169.0        3281794178.0        2616230133.0        1457051261.0        2762791137.0        2480527362.0        2282316169.0
Wiener process for Thermostat # 9        1 F T T  -6.1167881598886420E-01         860070862.0         652064830.0         603232934.0        2775608396.0        4003813556.0         946401950.0        3777646647.0        1837464056.0        4204654757.0         664239048.0        4190510072.0        2959195122.0        3777646647.0        1837464056.0        4204654757.0         664239048.0        4190510072.0        2959195122.0
Wiener process for Thermostat # 10       1 F T T   1.1108818322574978E+00        3614045012.0        3256902257.0          96776338.0        1893332271.0        3833223857.0        3583852308.0        4215590817.0        3862461878.0        1087200967.0        1544910132.0         936383720.0        1611370123.0        4215590817.0        3862461878.0        1087200967.0        1544910132.0         936383720.0        1611370123.0
Wiener process for Thermostat # 11       1 F T T  -5.8850016727527310E-01        3354437349.0        3072172472.0        3050255136.0        4055410285.0        2604697713.0        2822061129.0        1683636369.0         362165168.0         814316280.0         869382050.0         980203903.0        2062101717.0        1683636369.0         362165168.0         814316280.0         869382050.0         980203903.0        2062101717.0
Wiener process for Thermostat # 12       1 F T T   9.4040083290153631E-01        1996905808.0        1207539456.0        2777136234.0        4193141128.0        2264271538.0         560312093.0         272317999.0         166758548.0         310112982.0         201045826.0        1680231254.0         118290799.0         272317999.0         166758548.0         310112982.0         201045826.0        1680231254.0         118290799.0
Wiener process for Thermostat # 13       1 F T T   3.5179154973923799E-01          79135591.0        3019749698.0        4113364193.0        1228085526.0         305468697.0        3716302585.0        2245755202.0        1652682525.0        2865544364.0         721509566.0         209733568.0         592362218.0        2245755202.0        1652682525.0        2865544364.0         721509566.0         209733568.0         592362218.0