 # Version information for this restart file 
 # current date 2024-11-21 21:35:39.274
 # current working dir /home/yhp2008/comp-lab-class-2024/Week12-IntroAIMD/Proton
 # Program compiled at                              Sat Dec 12 18:27:15 EST 2020
 # Program compiled on                                         cs001.nyu.cluster
 # Program compiled for                                                nyu-intel
 # Source code revision number                                       git:8c64c6e
 &GLOBAL
   PRINT_LEVEL  LOW
   PROJECT_NAME proton_aimd_1ns_every0.5fs
   RUN_TYPE  MD
   WALLTIME 21600
 &END GLOBAL
 &MOTION
   &GEO_OPT
     OPTIMIZER  BFGS
     MAX_ITER  100
     MAX_DR     3.0000000000000001E-03
     &BFGS
     &END BFGS
   &END GEO_OPT
   &MD
     ENSEMBLE  NVT
     STEPS  2000
     TIMESTEP     4.9999999999999994E-01
     STEP_START_VAL  43
     TIME_START_VAL     2.1500000000000011E+01
     ECONS_START_VAL    -1.1026316107807854E+03
     TEMPERATURE     3.0000000000000000E+02
     &THERMOSTAT
       TYPE  GLE
       REGION  MASSIVE
       &GLE
         NDIM  5
         A_SCALE     1.0000000000000000E+00
         A_LIST     1.8595758612559999E+02    2.7263853498399998E-01    1.1526100454610001E+01   -3.6414578262600003E+01 \
             2.3173375816020001E+02
         A_LIST    -2.7809524712060002E-01    8.5951591808710006E-05    7.2189048017650004E-01   -1.9844539343859999E-01 \
             4.2409257583420001E-01
         A_LIST    -1.4825808131210000E+01   -7.2189048017650004E-01    1.3590902121280000E+00    5.1498896280349999E+00 \
            -9.9949268450990001E+00
         A_LIST    -1.0372189126880000E+01    1.9844539343859999E-01   -5.1498896280349999E+00    2.6661910891169999E+01 \
             1.1507715495310000E+01
         A_LIST     2.1801346360420001E+02   -4.2409257583420001E-01    9.9949268450990001E+00   -1.1507715495310000E+01 \
             3.0958394565589998E+02
         &THERMOSTAT_ENERGY
              -1.5631021832088333E-03
              -2.2300252993333154E-04
               2.7239971991028416E-04
              -2.0161396177669050E-03
              -1.3439505093808994E-03
               3.0921558084408651E-03
               6.7243333873079851E-05
               1.1754919626708724E-03
               9.8445103897480766E-04
               7.3815967466490462E-04
              -3.1555988655112589E-04
              -4.4780407528940622E-05
               2.3946458374584476E-03
              -8.2489311834120385E-04
               1.0655245001535149E-03
               4.9001250458568341E-04
              -3.3894948818091281E-04
               3.2586735194660411E-04
              -4.2262693920019716E-04
               9.1998608110274499E-04
              -1.2139619711979623E-03
               1.9348378006715404E-03
              -5.8934592719796274E-04
              -7.8829510269546102E-04
               2.1454038027097090E-04
              -1.2150992774858157E-03
               7.1675629103889137E-04
               1.9215915114674771E-03
               1.9977623586915731E-03
               1.6242087637116053E-03
               2.5493283505071636E-02
               9.3168294756226632E-03
               8.3199595644906765E-03
               1.5044313767343829E-03
               4.9780348798271357E-03
               3.4146889154427363E-03
               5.8536218716807083E-04
              -2.6034618750649487E-05
               1.7036485403214670E-04
              -3.2414346419661500E-04
              -7.9638606518682344E-04
              -2.6466574648975156E-03
              -2.3919399960244665E-03
               1.5562793908366558E-03
              -1.3723073946033237E-03
               2.1931606454778378E-03
               5.1740696011393181E-04
              -1.0555623308770279E-03
               1.7184660720176740E-03
               2.1240025712951084E-04
              -6.3644739202856125E-04
              -6.3788167802508034E-05
              -4.6776336541898939E-04
              -5.7972539847016844E-04
              -1.0756112704964006E-03
              -6.5065241491774452E-04
               2.0582199831212811E-04
               8.8038205702115063E-05
              -1.9973965594617263E-03
              -3.5457200569328438E-04
              -5.6790953801659754E-05
               1.1645950218679361E-03
               8.2485929946229377E-05
               1.4967703132493266E-03
              -7.3379342608773394E-04
               1.1027656987491273E-03
              -2.7501901298925658E-04
              -2.9801420164823135E-04
               1.3352773445913981E-03
               4.2765874214555267E-04
              -8.3763560595494495E-04
               2.3713006843222501E-03
              -9.3243503623591261E-04
               3.9084738040821106E-04
               2.2707965292095161E-04
              -3.7802110492502134E-04
              -3.3141313440339859E-05
               9.5808280651708496E-04
               3.9667558303961977E-03
              -3.4499206247679324E-04
               1.2115048367208366E-04
              -1.0108733126067956E-05
               3.6221683295000818E-04
              -6.8962877115825630E-05
               5.6301208042805256E-04
               1.2050530545656605E-04
              -1.0317305605439485E-03
              -1.6757088377840492E-04
              -6.8451716709026680E-04
              -9.9791991347952520E-04
               2.1630088904904532E-03
               3.1413815628555317E-03
              -1.9810328229567611E-03
              -7.4951923376304313E-04
              -8.8992471445359887E-04
              -1.0095102659794764E-04
              -5.2569042655322367E-05
              -2.0549184475013448E-03
               1.1280392455761633E-03
               7.9670866306126239E-04
              -1.0295414524841198E-03
               2.0671621431184327E-04
              -4.2780580506885399E-04
               3.0369115975273867E-03
              -2.1329848647946240E-05
               3.4027291140625447E-04
               6.4132316308381388E-04
              -2.1721127589695917E-04
               1.5740132153779435E-03
               4.9563212833553022E-04
               5.8377956859179711E-04
               7.2929950412140454E-04
               1.0022186317214460E-03
               4.5905847499965520E-04
               1.7200982187999580E-04
               1.7504286248554483E-05
              -8.1270640806982274E-03
               1.3769935663055478E-03
               4.0009772548874837E-04
               5.8869935427256347E-04
              -1.7068665696614479E-04
              -6.5384384144809868E-04
               2.6254174990083725E-03
              -6.1884092844398495E-04
              -8.7357124284940545E-05
              -2.0301431638929815E-03
              -1.5013302629721227E-03
               2.3200083320619501E-03
               1.0822220261924374E-05
               1.9833021440912010E-04
              -2.4327064596609237E-03
              -1.9186223954134323E-03
               2.1493375780724942E-03
               8.4519929958096413E-04
              -1.4107966873874341E-03
               3.4885067837505616E-04
               5.8792883445797910E-05
               7.7758366956246806E-04
               7.5470637153674544E-04
               3.5595936990279360E-04
               2.1402859658561217E-03
               4.5503133764681220E-04
              -1.1735749775402720E-03
               4.2572954777268790E-04
               9.9686719649622838E-04
              -7.0321111801122457E-05
              -1.8818211888255946E-04
              -6.1339049907616246E-04
               2.3106971859315452E-04
              -6.2044278059977635E-06
               6.7860202556325490E-05
               9.1912274894913565E-06
              -3.9670204931597125E-04
              -4.3013301317582867E-04
               1.5799333910885289E-04
              -1.1889565357691353E-04
               2.2125117699057148E-04
              -1.9672613999501299E-04
               2.5146566871479283E-04
              -5.5135534749140729E-04
              -8.0887565787311744E-04
              -1.6908126465649709E-03
              -9.7525068148215119E-04
               4.0723531290450427E-04
               2.1259564616538298E-03
              -1.6075147287889532E-04
               1.3846120365671613E-03
               1.0807391517417780E-03
              -2.8341888265807861E-03
               1.9225620653090904E-03
              -1.2151144715642857E-05
              -3.1254149810449792E-04
              -4.3897678657033588E-04
              -5.5774838208995153E-04
              -2.9491434733157720E-04
              -9.8743974858799899E-04
               3.2190341768182922E-03
              -8.4078201326596178E-04
              -2.2439729066780966E-03
               1.9586985411297990E-03
               3.8887639537736512E-05
              -2.0198311377002186E-03
               6.6860365639116780E-04
               1.7675373942355765E-03
               5.9409028808503242E-04
               2.0430455390031888E-04
              -1.3580328602002063E-03
              -1.0198790084963892E-03
              -2.8673666862851252E-03
               5.6398070396619844E-04
               4.5762154191824613E-04
              -8.1596870639841917E-04
               1.1725353631049354E-03
              -9.2621453427747824E-04
              -2.3450179688332709E-04
              -4.0769172692513064E-03
              -8.5713670377468825E-05
              -4.6164172729447773E-04
               1.3778478085884763E-03
              -2.2863182261670273E-04
               4.7779936673867334E-04
               1.3042441688589694E-05
               1.2538199812835178E-03
               2.5163640946060351E-04
              -2.9815871295573041E-03
              -1.8755750260387476E-04
               1.0286534478365604E-03
               1.0091582395198885E-03
               3.9126558844237449E-04
               3.8100948038454342E-03
              -8.2129823933742795E-04
               7.4305095020827348E-04
               2.2257822250249062E-03
              -2.0764538245427355E-03
               2.5036871302605064E-04
               1.5685663483364606E-03
              -2.8633594005726118E-03
               8.4837098259702857E-04
               9.0118580834953042E-04
              -1.4931405117302287E-03
               1.7920304898364455E-03
              -1.0927061039975835E-03
               1.4345701096574381E-03
               1.8811717211154592E-04
              -6.5070707433369734E-04
               5.0844786955994324E-04
               1.7731112212451784E-04
               5.6942752908820940E-06
              -1.2128016571482869E-04
               3.6609741909431745E-03
               3.0665865408740546E-04
               1.4820756811027773E-03
               2.4897222804137303E-04
               3.4942535325313459E-04
              -3.5613342107550868E-04
              -2.2073388207321529E-03
              -2.3894007091931359E-03
               5.3828176033746730E-05
               1.4307355735603135E-04
               6.9463482478621010E-04
               1.3038974314152660E-03
               7.6361427681601718E-05
               1.6584158228344049E-03
               1.3414273788419429E-03
               2.9236074933635162E-04
              -4.1026497266021867E-04
              -3.1501000176178051E-04
               5.7595280890594929E-04
               1.4019517512015001E-05
              -2.2043168456791114E-03
               1.1403122349598681E-03
               7.3140962537673361E-04
              -7.5357804937312622E-04
               4.4955775100060356E-04
              -6.4061501201756964E-04
              -5.5365632453258085E-04
              -2.4161388775280194E-04
              -4.0810655259457528E-04
               2.0777415092025796E-04
              -2.1939062867492223E-04
              -1.2678070874649775E-04
               2.6207387869823021E-04
              -1.3072381991275192E-03
               1.8005386034863637E-03
               1.0751602968365091E-03
               6.0288234265994231E-04
              -3.9694657299365374E-04
               3.3943778037625629E-05
              -4.7265827765562369E-04
              -1.9742897292175077E-03
              -1.2908769975794436E-03
              -5.9877854355438022E-05
               8.6192067350020782E-04
              -5.4465983139499068E-04
              -1.0774776455571857E-03
               1.1333264224313000E-03
              -7.5468561878181436E-04
              -3.1609828115255833E-04
              -3.9185065398701267E-04
               1.5667484162700985E-04
              -3.7262103509551656E-04
              -4.7737886841648286E-04
               2.1940997258705779E-04
               4.1497235606725196E-04
              -4.8786927385011163E-04
               4.5998855341240411E-04
              -1.3597219890342728E-03
              -5.7321075543163597E-04
              -9.5302765867276310E-04
              -2.3335800352188452E-04
              -2.2591590786131617E-03
               2.0793695647814965E-03
              -1.6208110274416243E-03
              -6.1004966628317456E-05
               8.0078774851648324E-04
               1.0821447995799878E-05
               2.6217020385235621E-04
              -7.6046080654746306E-06
              -6.7495382512222939E-04
               5.6535234953365016E-04
               1.9250793376466540E-03
               5.1168891654509497E-04
              -2.4762614886445801E-04
              -5.9952497061794945E-04
               2.4427994764148813E-03
              -7.5826657503768160E-04
              -4.9361615988933625E-05
               2.4436076939563769E-04
               4.7811397159795828E-05
              -5.6225669766454714E-04
              -1.3097433241310600E-03
              -7.0542380498138195E-04
               1.7335706213598878E-03
               4.4979026334831992E-04
               1.0695199574506976E-03
               7.5790497896498427E-04
              -2.3090704197826256E-04
               2.3414175927425488E-03
              -4.3359904338250712E-04
              -9.2632805129414756E-04
               3.1621509095915070E-05
              -1.5237114776775087E-03
               4.3443008878032833E-04
              -1.0420330835157802E-03
               2.2956011089146976E-03
               8.9110372420466853E-05
              -2.5781670992900069E-04
               2.1597740421139726E-03
              -6.2454145546044241E-04
              -2.1917770632983767E-03
              -2.3746767113736662E-03
              -6.5412096719613081E-04
               1.0761607122193153E-03
               1.7962501668512673E-03
               7.4905319539704724E-04
               8.2302636329735078E-04
               3.6927921304375803E-03
               2.1242612249062153E-03
              -1.4523559640082962E-03
               9.9918487865590993E-04
               2.6493717735014496E-04
              -5.3784186816985768E-04
               1.7776769151428241E-03
               4.3262411753774191E-04
               6.9347742030887740E-04
               1.3251585194076023E-03
              -4.1178829045002932E-04
              -4.7417964881083766E-04
              -6.9014725265221513E-04
               8.6244206715159369E-04
               1.5534007948189363E-04
               2.5078686651350512E-04
              -1.8734184514491214E-04
              -2.5584095874161097E-04
               2.0357616856534448E-04
              -2.8386730561630229E-03
               9.5906004882291237E-04
              -1.6688603909960319E-03
              -7.8235461556610012E-04
               8.1075624149917118E-04
              -3.0603650176414595E-04
              -4.0645218347853777E-04
              -1.3313372737254494E-04
              -1.1617251310457200E-03
               1.8924158073020864E-03
              -7.6182890372202558E-05
               5.8898376505669373E-04
              -3.2350807176667335E-04
              -1.5790873680539734E-03
              -9.0389736205513573E-04
              -1.6503663797014662E-04
              -4.4706111210448846E-04
               2.1719862257547299E-03
               2.0869256935133638E-04
              -1.5481802197396400E-03
              -4.2249759637652314E-03
               1.9793584629619293E-03
               1.2992173850007280E-04
               1.5050043988478054E-03
               1.0766882249797977E-03
               5.7957639267058934E-04
              -1.4526972920318956E-03
               2.2778194208159363E-03
               1.2741449798696562E-03
              -2.9739754631684890E-03
               7.1504483308063699E-04
              -7.6234300613245128E-05
              -4.1460939944963126E-03
              -2.2681210640043310E-03
               2.6285297697161922E-04
               7.1443477994729936E-04
               2.7987659945681055E-04
              -1.9560454022495965E-03
              -1.0729087989707275E-03
              -1.3154489417622421E-03
              -1.0887480906121936E-03
              -1.5679016776032730E-03
               6.5688533650257522E-04
              -9.6746953184219798E-04
               3.2683549564591508E-04
              -3.2311479752457819E-03
               2.6209070015709990E-03
               2.8808776581016200E-04
               1.8021414002349174E-03
              -5.9126184026973871E-04
               2.1090057572485584E-04
              -1.5474232737290466E-03
               8.7658197027846779E-04
               1.9291214837563946E-05
              -4.3794143151125383E-04
              -7.5311816215371265E-04
               9.8368002838153737E-04
               3.3093471225380147E-04
               8.1730099999461118E-04
              -7.9486733972790834E-04
               1.1250104443491916E-04
               7.5048147496857792E-04
              -1.0144163591932942E-05
               1.0566554892585342E-03
              -9.3907760496863765E-04
               1.2340854172515376E-03
              -2.0418593706836800E-03
               8.5529667594245443E-04
               2.9627703137595704E-02
               1.7186947848634202E-02
               1.0303993707988304E-02
               3.2584129715393221E-03
              -1.0877082771505440E-03
               3.0906507096315657E-03
               7.7138146108283892E-04
              -6.8479062311797715E-04
               4.8186169337278715E-03
               1.0623101455066513E-02
               1.3355267151361337E-02
               1.8461620360559082E-03
               1.2979376012636160E-03
              -4.3522932074416487E-04
               1.0780014357995269E-04
              -2.0552498710016648E-03
               6.0975340918194428E-04
              -5.3583044130958539E-04
              -2.3489710813429728E-03
              -6.3903187361829747E-05
              -1.2101948859579912E-03
              -9.3062588208534056E-04
              -3.1650293851184693E-04
               4.4414426837427543E-04
              -3.3589339945012898E-04
               3.0441653957504369E-03
               6.6986132992625017E-04
               1.5155034670124921E-03
              -1.9799938908216857E-03
               2.1148243826979115E-03
               8.6300904553033837E-04
              -2.1353719552602763E-04
               4.6716683580908070E-05
               2.8929518289542451E-04
              -4.5210766694464555E-04
               2.0004520835890803E-03
              -1.3371220977338593E-03
               1.1664515086029406E-04
              -3.3285224505127177E-04
              -2.4914271246123049E-03
              -5.2189815825035100E-04
               2.5789018434836351E-03
              -2.1515127564766569E-03
              -2.7644362747906884E-04
              -7.5403093000155508E-04
               1.9595579054153896E-03
               2.6746728284858059E-03
              -1.1351397892923542E-03
               1.1009053033466478E-03
               1.1115303376671350E-03
               3.3441663497480633E-04
               2.9667777415662760E-04
               1.1980927623910836E-03
               6.6977310479499920E-04
              -2.0213136936344481E-04
              -3.4557549431253804E-04
               1.0153948675891943E-03
               3.1302645867463301E-03
              -6.2521913087147131E-05
               2.2248731166689896E-03
               3.8413468974935138E-03
              -1.3736405211258484E-03
              -4.6551574756763199E-04
              -1.5957438456088763E-03
              -1.5751336896991199E-03
               2.7316397485238234E-04
               5.5900952303270077E-04
               1.7688374465651957E-04
              -3.9255847502038375E-04
               3.4063086895349051E-04
              -3.8658879551334372E-04
               3.0281183947371434E-04
               5.7080677035924654E-04
               5.0574550680448300E-03
               2.3746728109911982E-03
              -2.7189449936179384E-04
              -8.8995624724538943E-05
               9.7277374386518746E-05
              -4.1402994341420841E-06
               7.4898542649903626E-04
               8.8751762417691436E-04
               9.0791012296183456E-04
              -1.8674723104588197E-03
              -2.9592282747138997E-04
               3.5341582479248858E-04
              -2.1040968539883027E-04
              -7.9374206612647653E-04
               8.5728219735339275E-04
               3.4699731051406014E-04
              -5.8736085712430761E-04
              -2.0755112565044620E-04
               2.4165258725107669E-03
              -8.3929881284634019E-04
              -4.2478163488106455E-04
               3.8128867804655222E-03
               1.4540656355640457E-03
              -9.4352405959513054E-04
               3.1384104846978421E-04
               8.0723475361622757E-04
               4.8553441951201430E-04
              -2.0391450812437687E-03
               2.9702412417436123E-04
               1.7429648218735108E-04
               4.2524097120354796E-03
               2.2703329297558187E-03
               3.3703302167726172E-03
              -8.1200804677817456E-05
               1.8838593460089210E-04
              -2.9098249576473023E-03
               1.4244379669608356E-03
              -2.2339072499446546E-03
               9.9013482131463755E-04
               2.7602054389319478E-04
               6.2194759971281443E-05
               5.1778660679238891E-04
               2.2184378387980183E-04
              -1.0073225855885552E-03
              -7.8317146116674079E-04
              -3.9903460430048658E-03
              -2.7150772495335883E-04
              -1.3865038138603078E-03
              -2.9813795592695562E-04
              -2.7165565829848277E-04
              -3.1923170845327478E-04
               2.7713675003164824E-05
               1.1595019075081895E-03
               9.6770682595235993E-04
              -1.3216499280889010E-04
              -1.3552069835919196E-03
              -7.3489523361166403E-04
              -6.5851637066648844E-04
              -7.3073942211245328E-04
              -4.0270302141323655E-03
               3.3111050271679501E-03
              -3.1405741756344651E-04
               4.2971115760917361E-03
               2.0699599598928212E-03
               1.7497408205653375E-03
               2.2538852269575328E-03
              -2.3259160537821618E-05
               1.1136131116691505E-03
               2.6964447201219651E-04
              -5.5357443932199700E-04
              -7.2473824344581998E-04
              -1.4008078733613364E-03
               2.5793795388729459E-04
               2.5873325059705968E-04
              -1.1300101018930924E-03
               1.8251261896794050E-03
               8.8600225309746572E-04
              -3.4196049049998702E-04
               1.8461534772563389E-03
              -1.4693658645235916E-03
               1.6987634152119931E-03
              -4.0516253504414688E-04
               1.0851989838025333E-03
         &END THERMOSTAT_ENERGY
         &RNG_INIT
Wiener process for Thermostat # 1        1 F T T  -4.9491457763155355E-01        3866530062.0          94412131.0        3244281364.0          94239327.0        2369398186.0        1249499067.0             12345.0             12345.0             12345.0             12345.0             12345.0             12345.0             12345.0             12345.0             12345.0             12345.0             12345.0             12345.0
Wiener process for Thermostat # 2        1 F T T  -1.3797096933478370E+00        1562092318.0        2755470592.0        4088960337.0        2512654898.0        1483000073.0        1412807380.0        3692455944.0        1366884236.0        2968912127.0         335948734.0        4161675175.0         475798818.0        3692455944.0        1366884236.0        2968912127.0         335948734.0        4161675175.0         475798818.0
Wiener process for Thermostat # 3        1 F T T   1.0055293210836835E+00         534468236.0        1245865276.0        3569296065.0        2349004920.0        2588351893.0        1297387832.0        1015873554.0        1310354410.0        2249465273.0         994084013.0        2912484720.0        3876682925.0        1015873554.0        1310354410.0        2249465273.0         994084013.0        2912484720.0        3876682925.0
Wiener process for Thermostat # 4        1 F T T  -1.0148401075549545E+00        2548575599.0        1517351533.0         332499718.0        1224952693.0        1015746318.0         378455224.0        2338701263.0        1119171942.0        2570676563.0         317077452.0        3194180850.0         618832124.0        2338701263.0        1119171942.0        2570676563.0         317077452.0        3194180850.0         618832124.0
Wiener process for Thermostat # 5        1 F T T  -1.7730830930607971E-01        3799976370.0        3026422051.0         880439890.0        3893363149.0        1228194346.0         173508640.0        1597262096.0        3906379055.0        3312112953.0        1016013135.0        4099474108.0         275305423.0        1597262096.0        3906379055.0        3312112953.0        1016013135.0        4099474108.0         275305423.0
Wiener process for Thermostat # 6        1 F T T   6.9582158711328801E-01         919897066.0        3104155478.0        3160926170.0        1520500884.0         599658321.0        1606734512.0          97147054.0        3131372450.0         829345164.0        3691032523.0        3006063034.0        4259826321.0          97147054.0        3131372450.0         829345164.0        3691032523.0        3006063034.0        4259826321.0
Wiener process for Thermostat # 7        1 F T T   3.3874617110645139E-01        2740759931.0         144809063.0         262936655.0        1757914857.0        1994799575.0        3275335091.0         796079799.0        2105258207.0         955365076.0        2923159030.0        4116632677.0        3067683584.0         796079799.0        2105258207.0         955365076.0        2923159030.0        4116632677.0        3067683584.0
Wiener process for Thermostat # 8        1 F T T  -5.2348502473761338E-01        1196012361.0        3796745950.0          51845844.0        2474507870.0        2708400598.0        1641446219.0        3281794178.0        2616230133.0        1457051261.0        2762791137.0        2480527362.0        2282316169.0        3281794178.0        2616230133.0        1457051261.0        2762791137.0        2480527362.0        2282316169.0
Wiener process for Thermostat # 9        1 F T T   1.0940328853273400E+00         815609172.0        2785526677.0        2767052259.0         411011184.0         411986766.0        1261662103.0        3777646647.0        1837464056.0        4204654757.0         664239048.0        4190510072.0        2959195122.0        3777646647.0        1837464056.0        4204654757.0         664239048.0        4190510072.0        2959195122.0
Wiener process for Thermostat # 10       1 F T T   2.0530978150050694E+00        1492856299.0        1554408434.0        3371047571.0        2610821060.0        2982501759.0         523533124.0        4215590817.0        3862461878.0        1087200967.0        1544910132.0         936383720.0        1611370123.0        4215590817.0        3862461878.0        1087200967.0        1544910132.0         936383720.0        1611370123.0
Wiener process for Thermostat # 11       1 F T T   1.0491366306916896E+00        2240351699.0        3254113689.0        1492217466.0        1718201981.0        3857460980.0        1511439872.0        1683636369.0         362165168.0         814316280.0         869382050.0         980203903.0        2062101717.0        1683636369.0         362165168.0         814316280.0         869382050.0         980203903.0        2062101717.0
Wiener process for Thermostat # 12       1 F T T  -3.7575549399883906E-01        3007280533.0        1293711003.0         433004724.0        2561359388.0          44375367.0        3939002647.0         272317999.0         166758548.0         310112982.0         201045826.0        1680231254.0         118290799.0         272317999.0         166758548.0         310112982.0         201045826.0        1680231254.0         118290799.0
Wiener process for Thermostat # 13       1 F T T  -1.0843506188398782E+00        1767059463.0        2905093435.0        3407094450.0         941121682.0        2009357387.0        2275524678.0        2245755202.0        1652682525.0        2865544364.0         721509566.0         209733568.0         592362218.0        2245755202.0        1652682525.0        2865544364.0         721509566.0         209733568.0         592362218.0