 # Version information for this restart file 
 # current date 2024-11-21 21:39:04.938
 # current working dir /home/yhp2008/comp-lab-class-2024/Week12-IntroAIMD/Proton
 # Program compiled at                              Sat Dec 12 18:27:15 EST 2020
 # Program compiled on                                         cs001.nyu.cluster
 # Program compiled for                                                nyu-intel
 # Source code revision number                                       git:8c64c6e
 &GLOBAL
   PRINT_LEVEL  LOW
   PROJECT_NAME proton_aimd_1ns_every0.5fs
   RUN_TYPE  MD
   WALLTIME 21600
 &END GLOBAL
 &MOTION
   &GEO_OPT
     OPTIMIZER  BFGS
     MAX_ITER  100
     MAX_DR     3.0000000000000001E-03
     &BFGS
     &END BFGS
   &END GEO_OPT
   &MD
     ENSEMBLE  NVT
     STEPS  2000
     TIMESTEP     4.9999999999999994E-01
     STEP_START_VAL  44
     TIME_START_VAL     2.2000000000000014E+01
     ECONS_START_VAL    -1.1026316107807854E+03
     TEMPERATURE     3.0000000000000000E+02
     &THERMOSTAT
       TYPE  GLE
       REGION  MASSIVE
       &GLE
         NDIM  5
         A_SCALE     1.0000000000000000E+00
         A_LIST     1.8595758612559999E+02    2.7263853498399998E-01    1.1526100454610001E+01   -3.6414578262600003E+01 \
             2.3173375816020001E+02
         A_LIST    -2.7809524712060002E-01    8.5951591808710006E-05    7.2189048017650004E-01   -1.9844539343859999E-01 \
             4.2409257583420001E-01
         A_LIST    -1.4825808131210000E+01   -7.2189048017650004E-01    1.3590902121280000E+00    5.1498896280349999E+00 \
            -9.9949268450990001E+00
         A_LIST    -1.0372189126880000E+01    1.9844539343859999E-01   -5.1498896280349999E+00    2.6661910891169999E+01 \
             1.1507715495310000E+01
         A_LIST     2.1801346360420001E+02   -4.2409257583420001E-01    9.9949268450990001E+00   -1.1507715495310000E+01 \
             3.0958394565589998E+02
         &THERMOSTAT_ENERGY
              -9.8088366518881364E-04
              -2.3480576327342462E-04
               3.0914839888037722E-04
              -1.8177650233618258E-03
              -1.2831334235615891E-03
               3.2273904655440947E-03
               4.4974386601143754E-04
               1.7118734472297802E-03
               6.5663951982897141E-04
              -5.7976763587782340E-04
              -9.5981613576921233E-05
               2.3241660658538928E-04
               2.9641763357030875E-03
              -9.9544875655564031E-05
               4.2105976113760379E-04
               4.3644501920281451E-04
              -2.8847184466090334E-04
               1.0198564795614103E-03
              -6.8836749380483725E-04
               8.8379063066349232E-04
              -8.0209366438769203E-04
               5.0932935427435875E-04
              -1.3305510057897061E-03
              -7.8981719110468292E-04
               5.5306792434037797E-04
              -8.7922402023623398E-04
               9.4278563384333656E-04
               2.1042019023905698E-03
               1.9441970056859376E-03
               1.7749662129065047E-03
               2.6070337350979710E-02
               9.9555343981275503E-03
               9.1480338883929875E-03
               9.5262585925468208E-04
               3.1976958210721950E-03
               3.6466393384160527E-03
               5.1240002072871051E-04
              -5.9029288075816255E-04
               4.8431515952392638E-05
              -4.2483041008534032E-05
              -2.2358318277515971E-03
              -2.5372789013010442E-03
              -2.3227882070764455E-03
               9.8844734860965584E-04
              -6.4486486816876408E-04
               2.1026965687495447E-03
               5.1921998256089117E-04
              -8.1545349526317905E-04
               1.7758929876329950E-03
               2.6125407971419135E-04
              -7.3691998439579345E-04
              -1.1115760351055478E-04
              -4.9639407472099658E-04
              -1.2186323651216210E-03
              -7.7766767960074363E-04
              -4.1682666423783934E-04
               1.8235342466737872E-04
               5.4140071715198965E-05
              -1.3044763346633968E-03
              -9.1100031029444956E-05
               6.3140958690794757E-04
               1.1730871482844931E-03
               4.7776777118170599E-04
               1.4842749586833806E-03
              -1.1853839101811047E-03
               1.1913450578559389E-03
              -2.3626985407179825E-04
              -3.4434231426141022E-04
               1.7345142351875339E-03
              -5.9002865319915821E-05
              -7.9718128021318338E-04
               1.9073659308067106E-03
              -9.0827877733604860E-04
               2.9661574259980052E-04
               6.6499879808674836E-05
              -4.7189531801935635E-04
               7.7991380214116526E-04
               5.0314645746882725E-04
               4.1714154684963679E-03
              -2.6451333484758035E-04
               8.2021406312030712E-05
               1.2855996679932919E-05
               1.9451429298258100E-04
              -5.0417780282543370E-04
               4.7891146492167667E-04
               3.9002104417149805E-04
              -1.0618684173979793E-03
              -8.0889340653598520E-04
              -1.0383160991832741E-03
              -9.6460075315650583E-04
               2.1404094044524939E-03
               3.1373681159250740E-03
              -1.0502330624006114E-03
              -3.9917936716734497E-04
              -9.2790098005724885E-04
               4.4885765666376101E-04
              -3.3583853975347432E-04
              -1.6969285024463271E-03
               1.0335097189721378E-03
              -1.8551612274779526E-04
              -2.6290726447559035E-04
               2.0485653231791515E-04
              -5.6762273188879506E-04
               2.7907735972267657E-03
              -2.0381943326057135E-04
              -3.6532185869340181E-04
               6.2087622281588556E-04
              -3.4936076809149595E-05
               1.6815836049648483E-03
               4.6505159698758075E-04
               5.1761189711675660E-04
               7.5756963301177802E-04
               1.1938583673694525E-03
               4.7350067373946349E-04
              -6.9993476952749959E-04
               1.0341911506753397E-03
              -8.2022250620904721E-03
               1.3828811097680747E-03
               9.8574254816003316E-04
               6.8912998906898570E-04
              -1.3866970837466438E-04
              -5.3598349538677400E-04
               2.6547211722986312E-03
              -1.4446772356305454E-04
              -1.3070675556033095E-04
              -2.0403881254680524E-03
              -2.2543095085487833E-04
               2.2499414857659419E-03
              -2.0922569042819173E-05
               3.0703119924526203E-04
              -3.5757987476164755E-03
              -2.0821734069335724E-03
               2.3356215080629797E-03
               6.2814292714067407E-05
              -1.4381545530572355E-03
              -2.5638319907818146E-05
               2.3678726159316900E-04
               7.3605144170724927E-04
               6.5804465644845830E-04
               4.8550081218615984E-04
               2.6957655095680424E-03
               3.5337678344516722E-04
              -1.0494380793583389E-03
               3.9566213419356183E-04
               9.7688139822476650E-04
              -9.1485667832910157E-05
              -6.3760856187790337E-04
              -8.6160963680687052E-04
               2.1135464099497297E-04
              -1.3052120365742077E-04
              -4.1452734071558339E-04
               1.1712414612417041E-04
              -3.4383675519107486E-04
               5.3287812388821151E-04
               1.2792542068326175E-04
              -3.8523917126966100E-04
               1.5005623213105749E-04
              -1.9143783627740727E-04
               3.2246024482400753E-04
              -5.9017807062788506E-04
              -1.0730693822613819E-03
              -1.7211392571920422E-03
              -9.0831713201600963E-04
               4.3767153959518986E-04
               2.7142223731708190E-03
               9.0183545860137923E-04
               1.2815858546629251E-03
               9.7591472135209105E-04
              -3.2403954248319674E-03
               1.8492075405330949E-03
               2.8086123181143087E-04
              -4.4846308471054247E-04
              -5.5405925084854265E-04
              -2.1489597448965457E-04
              -1.7260643044960311E-04
              -4.2930687141726469E-04
               3.2677009900780778E-03
              -9.9608304916877608E-04
              -1.0930726188456488E-03
               1.9428877962210393E-03
              -9.9368417469440336E-04
              -1.3441110057881584E-03
               4.6104149492206132E-04
               1.7703234356434461E-03
               1.4105275968106742E-04
               2.4204689406050797E-04
              -1.0906120004686515E-03
              -1.2104653792765548E-03
              -3.0298188412438733E-03
               4.3013937836738371E-04
               3.3336294441404612E-04
              -1.1194738652171349E-03
               1.4479079535302116E-03
              -9.3020266304961313E-04
              -4.1765268431262649E-04
              -3.8799392026408652E-03
              -3.2364827078244367E-04
               9.9832201201369587E-05
               1.7290302694637626E-03
              -3.2342048541281817E-04
               3.7447399651184906E-04
              -4.3647036605764526E-06
               1.2269106164660721E-03
              -4.4680064871898827E-05
              -2.9886913215493938E-03
              -4.1859975890963682E-04
               9.9295063209356568E-04
               9.5121452976223877E-04
               6.8006436352497951E-04
               3.1714017226043088E-03
              -7.2264603064548340E-04
               1.0084279810954550E-03
               1.9743779464786795E-03
              -2.1627607940777091E-03
               2.8660437675840695E-04
               1.6939417577247276E-03
              -1.6412301125176033E-03
               7.6781120623903027E-04
               7.7419869009791493E-04
              -5.8067309152753715E-04
               1.7886074971090722E-03
              -6.5809424680628517E-04
               1.3244182448134761E-03
               1.5659598058549251E-04
              -4.1696358155141403E-04
               3.2077965887662165E-04
              -2.6367775788249030E-04
              -2.5080623038293583E-04
               9.6371391018591708E-05
               3.5415901634847065E-03
               2.8378968167488825E-04
               1.7130345535961192E-03
              -5.9506798331634113E-05
              -5.5930191640761451E-04
              -4.9440194484410703E-04
              -2.6855375835341967E-03
              -1.9545344168310883E-03
               2.4228330303522217E-05
               3.1059398865270990E-04
               8.1734478981930361E-04
               1.4087985490706676E-03
              -9.1695796269898003E-04
               1.5513139660253263E-03
               1.3156329152972932E-03
               6.8795391441323658E-05
              -4.4668467798824007E-04
              -6.3117935454031458E-04
               9.1220003682122614E-04
               5.7491312051154050E-05
              -2.2723859752016699E-03
               1.0132764882298730E-03
               8.8019177565772078E-04
              -6.7227166062020893E-04
               5.4100587468991067E-04
              -5.1115346683990688E-04
              -4.7230183447485359E-04
              -8.9424422348248541E-05
              -5.0445509740807554E-04
               7.9872809911777249E-05
              -2.3764432158011303E-04
              -4.1555197228282349E-04
               3.8641071062219911E-04
              -8.7201759536871082E-04
               1.6493338912311082E-03
               1.2811355866896204E-03
               5.9258674882920880E-04
              -4.3128439121942837E-04
               1.2178327985439291E-04
              -1.2615804853412643E-03
              -1.9990155210523842E-03
              -3.2181095008954465E-04
               3.2793998994135731E-04
               7.1055554802021198E-04
              -7.5733448643950166E-04
              -1.0564315394218809E-03
               1.1919039350670104E-03
              -4.5937284426888223E-04
              -3.4957579931769198E-04
              -3.9281104639008412E-04
               1.5499083410688163E-04
              -6.0836331254311270E-04
              -4.1895321090651725E-04
               2.0215684595204577E-04
               2.9703365882986153E-04
              -6.2714469340431611E-04
               3.4330827926899000E-04
              -1.9686657707117250E-03
              -3.5782762495722661E-04
              -4.8990997542735430E-04
              -2.3374733129409662E-06
              -1.6779190671801724E-03
               2.0983962734770077E-03
              -1.5773952412922226E-03
               2.6184957233637619E-04
               9.3558437845597385E-04
              -2.4163290179020401E-04
               3.0164453741000951E-04
               1.2368039338227582E-04
              -7.6213818037184440E-04
               8.6593252708277817E-04
               2.0004209582784021E-03
               5.9961039914329035E-04
              -8.4734812543467647E-04
              -6.3349014839491854E-04
               2.3678742270739732E-03
              -7.8485503805267765E-04
              -1.0016189059719057E-03
               2.8153172636047818E-04
              -1.4620450603326343E-04
              -1.1558112298739936E-03
              -1.3115661852317504E-03
              -6.8960743637877476E-04
               2.1663843322282184E-03
               5.6770482540274727E-04
               1.1350022816617182E-03
               9.4101861693327948E-04
              -3.2192144040986832E-04
               2.0484738505401946E-03
               1.5920864389659239E-06
              -5.3872883606201371E-04
              -5.0114267960762559E-04
              -1.0629076404791837E-03
               5.5647340795932413E-04
              -1.4075441447474490E-03
               1.1958506476218978E-03
              -3.6231501555583818E-04
              -3.7246015510697373E-04
               2.3193862580382575E-03
              -6.1441353541022913E-04
              -1.5819059014632565E-03
              -2.3080457909741923E-03
              -6.4944398365730544E-04
               1.0226496150747648E-03
               1.4950153825422170E-03
               7.8331414821073179E-04
               7.9140812263893163E-04
               3.8128430789991816E-03
               1.7275081524218930E-03
              -1.7572397918488400E-03
               9.8998671629356005E-04
               4.7650136399086186E-04
              -6.0333408880029445E-04
               1.6850081526652207E-03
               4.2383852236684547E-04
               7.6691301233871743E-04
               1.3100862962186247E-03
              -4.3711198077530056E-04
              -6.9966073941501029E-04
              -6.3714429813397776E-04
               8.7381468518897575E-04
               2.0492096052419321E-04
               1.9020823013239305E-04
              -1.8948990304704650E-04
              -2.4555360062645940E-04
               5.1122303842175530E-05
              -2.5674891664941302E-03
               1.6437826150161776E-03
              -1.9240593836383794E-03
              -8.5662335853855436E-04
               1.0465627433906850E-03
              -7.1941807072374065E-04
              -8.0136594002951772E-04
              -7.2778535109838452E-05
              -1.0834979314951608E-03
               1.9138189538703020E-03
               2.8807222427380710E-04
               1.1393383148359277E-03
              -3.2025473806886315E-04
              -2.1594796766501992E-03
              -7.9481823204195713E-04
              -1.1386165526093502E-04
              -4.5918208982528332E-04
               1.8863518830941244E-03
              -1.9699828732928310E-04
              -1.4858261872535241E-03
              -3.4045485147798800E-03
               2.1409123182469557E-03
              -3.0712439259779280E-04
               1.3413728199211010E-03
               4.8882895632691757E-04
               1.9780163006582541E-04
              -1.0029331967561540E-03
               2.4386866113605306E-03
               1.6462630703290850E-04
              -3.2278703121934311E-03
              -5.9426043912975696E-04
              -3.3930725602194980E-04
              -3.2948434984704650E-03
              -1.2331059864512822E-03
              -3.9278822117305115E-04
               5.2317266345441589E-04
               1.0678753690982260E-04
              -1.9120311782813166E-03
              -1.2352852674659754E-03
              -1.5167033352577036E-03
              -6.6760515559314193E-04
              -1.8547619614047710E-03
               1.0647305125896286E-03
              -1.0811136882427151E-03
               3.4595147615633826E-04
              -3.2085492092954202E-03
               2.5795559659397443E-03
               4.2483591278053132E-04
               1.7159761782308731E-03
              -3.9351504146163327E-04
              -9.6875714812874592E-05
              -1.2396420080642305E-03
               1.2107220956383631E-03
              -1.7893123152118258E-04
              -4.7636945602461827E-04
              -8.8805945900698570E-04
               8.2560958195827426E-04
               1.6025877043928004E-04
               8.2281334340395418E-04
              -6.7636752809833588E-04
              -4.5954489526468887E-04
               9.1325591399472514E-04
              -2.8589232944039596E-04
               1.1137111753405692E-03
              -8.1709877255257924E-04
               1.2719689228068644E-03
              -2.0009572855633072E-03
               9.2082191076517579E-04
               3.0449775207903797E-02
               1.7742955773677929E-02
               1.0413675826120423E-02
               3.0496611261971633E-03
              -1.1432083412249968E-03
               3.2451223440031923E-03
               7.6264690175044468E-04
               4.5548508618432600E-04
               4.7971251487381305E-03
               1.0378139627173683E-02
               1.3763657821349775E-02
               1.7197372255372155E-03
               1.2666912340162254E-03
              -4.3150163160614373E-04
               1.3112828711586938E-04
              -2.6361290342573830E-03
               5.9365051798201712E-04
               8.5310026084914483E-05
              -2.3115352376463613E-03
               1.6997512349499857E-04
              -1.2093292896045128E-03
              -1.0039337199970926E-03
              -3.4661879322637004E-04
               5.5407288957098520E-04
              -3.5709543213880188E-04
               3.2672901740364996E-03
               3.3229929132924115E-04
               8.8495380718672627E-04
              -2.4591619979874432E-03
               1.8365034088975384E-03
               8.7695396614182993E-04
               1.9013449833731315E-04
               4.1453394899560437E-05
               3.6709254896155011E-04
              -4.0226270622245705E-04
               2.0663151780619575E-03
              -1.0518822954769416E-03
               9.6445114856667487E-05
              -4.3589615308532297E-04
              -2.8549980331186728E-03
              -5.4961461284328439E-04
               1.9725374145127192E-03
              -1.7305293853992767E-03
              -2.7139884692297073E-04
              -3.7844578343403595E-04
               2.0166112737063729E-03
               2.5223110695907565E-03
              -9.2720661890120272E-04
               1.0903883440690260E-03
               1.1047320936653435E-03
               3.2774669906051766E-04
               2.4691697592054253E-04
               1.3323656984416104E-03
               6.0265024205415844E-04
               1.4783923336322564E-04
              -3.5380941884451366E-04
               1.1795733484668276E-03
               3.0894825094925707E-03
              -6.0950039062500328E-04
               2.2233813021828551E-03
               3.8482124968719582E-03
              -2.6009128228965969E-04
              -4.9905790294408172E-04
              -1.7083028746616110E-03
              -1.3791378427352777E-03
               5.3425845561347763E-04
               5.6373174479480280E-04
               1.7155958015153874E-04
              -4.0363533761839305E-04
               4.2903722200611386E-05
              -8.5783981065671536E-04
               2.7321326914527759E-04
               6.8900073192799580E-04
               4.4619189019851581E-03
               2.4237644179560531E-03
              -3.6692802520433480E-04
               3.9499658028797267E-04
              -1.2614697631310322E-04
               3.3950056016857240E-04
               6.9248208063129170E-04
               6.5076208766144694E-04
               8.8474744164090057E-04
              -1.8435416611406734E-03
              -3.6921303562202396E-04
               2.1199103348999823E-04
              -5.8690325971486198E-04
              -1.4056503432889400E-04
               6.9521604893245392E-04
               4.2183137603276244E-04
              -2.3209693983610209E-04
              -1.4649634397426478E-03
               2.2047278486775684E-03
              -1.4313291896052615E-03
              -5.4169178263433209E-04
               2.7193633600491223E-03
               1.7500148858924736E-03
              -6.3882516651984781E-04
               3.6698368802083316E-04
               9.3707729726959514E-04
               8.1920138318332370E-04
              -1.9479028572827821E-03
               4.0587788827745606E-05
               1.2468335414573625E-04
               4.7741120951787066E-03
               2.1060108814958140E-03
               3.3065389483699554E-03
              -2.9218152720888492E-04
               1.3794969822815634E-04
              -1.6721070619947626E-03
               1.4952863838232384E-03
              -2.0785177105887877E-03
               1.0369547896869813E-03
               2.5284336323662832E-04
               3.6683643743698377E-05
               7.8430410243956691E-04
               5.8086607498800255E-04
              -1.2450113726737069E-03
              -7.5850761595271370E-04
              -3.0787865930007809E-03
              -3.1294313335876450E-04
              -5.6184803714767252E-04
              -1.0891960222423675E-04
               2.3382692649663700E-05
              -7.7410721173732863E-04
               1.4887179226263372E-04
               1.1935940316709229E-03
               1.1681697854705516E-03
               1.9953384047637529E-04
              -1.1847708990229606E-03
              -7.3981383205194522E-04
              -5.8028128819292946E-04
              -2.9599100978139727E-04
              -4.0350376887883128E-03
               3.2137080054363380E-03
              -2.3372890736722129E-04
               4.2847811717220165E-03
               2.1219484708350877E-03
               1.8383301094198356E-03
               1.6013484279970725E-03
              -3.1665524031908283E-04
               1.1265866276764154E-03
               6.3988909069196526E-04
              -3.2442832719793105E-04
              -7.4985580887932681E-04
              -1.8465014804440250E-03
               2.4629022846632868E-04
               4.1094655257014880E-04
              -9.1771319338906281E-04
               1.5695035782062263E-03
               8.8500293421581275E-04
              -4.1791501861818391E-04
               2.0822384700526484E-03
              -1.7751574657421700E-03
               1.6846753448700356E-03
              -3.7130716928532531E-04
               1.1271287472371908E-03
         &END THERMOSTAT_ENERGY
         &RNG_INIT
Wiener process for Thermostat # 1        1 F T T   9.8486090010952110E-01         120378748.0        1913789876.0        3385766351.0        2711875915.0        2533886142.0        2190629033.0             12345.0             12345.0             12345.0             12345.0             12345.0             12345.0             12345.0             12345.0             12345.0             12345.0             12345.0             12345.0
Wiener process for Thermostat # 2        1 F T T   5.2547682682470576E-01        1874564857.0        3270448799.0         803383184.0        3066329973.0         280489992.0        1191496772.0        3692455944.0        1366884236.0        2968912127.0         335948734.0        4161675175.0         475798818.0        3692455944.0        1366884236.0        2968912127.0         335948734.0        4161675175.0         475798818.0
Wiener process for Thermostat # 3        1 F T T  -1.0695012032103657E+00        3006377210.0          74564610.0        2694738320.0        4127069966.0        2648667724.0        2954624658.0        1015873554.0        1310354410.0        2249465273.0         994084013.0        2912484720.0        3876682925.0        1015873554.0        1310354410.0        2249465273.0         994084013.0        2912484720.0        3876682925.0
Wiener process for Thermostat # 4        1 F T T  -3.9849938101804799E-01        1795273347.0         218749237.0        1715479652.0        1864771016.0        2923373380.0        1220124362.0        2338701263.0        1119171942.0        2570676563.0         317077452.0        3194180850.0         618832124.0        2338701263.0        1119171942.0        2570676563.0         317077452.0        3194180850.0         618832124.0
Wiener process for Thermostat # 5        1 F T T   6.2294374095750638E-01        1850753643.0         903508718.0        3663504516.0        1766682364.0        1108810179.0        3913683533.0        1597262096.0        3906379055.0        3312112953.0        1016013135.0        4099474108.0         275305423.0        1597262096.0        3906379055.0        3312112953.0        1016013135.0        4099474108.0         275305423.0
Wiener process for Thermostat # 6        1 F T T  -5.7505610899977366E-01        2352048386.0        3785148715.0         610439239.0        3889275101.0        2905192660.0        1370502006.0          97147054.0        3131372450.0         829345164.0        3691032523.0        3006063034.0        4259826321.0          97147054.0        3131372450.0         829345164.0        3691032523.0        3006063034.0        4259826321.0
Wiener process for Thermostat # 7        1 F T T  -7.4119758401371283E-01        3134356426.0         595704781.0        4009306744.0        3094697587.0         167002674.0        1736377179.0         796079799.0        2105258207.0         955365076.0        2923159030.0        4116632677.0        3067683584.0         796079799.0        2105258207.0         955365076.0        2923159030.0        4116632677.0        3067683584.0
Wiener process for Thermostat # 8        1 F T T  -1.2146514953997936E+00        2234925423.0        3108854370.0        2021524259.0        3401760805.0        1089509452.0        3398312736.0        3281794178.0        2616230133.0        1457051261.0        2762791137.0        2480527362.0        2282316169.0        3281794178.0        2616230133.0        1457051261.0        2762791137.0        2480527362.0        2282316169.0
Wiener process for Thermostat # 9        1 F T T   6.7445006340351177E-01        1128890798.0        1674895659.0         327256187.0        3280588640.0        2572959315.0        2039797462.0        3777646647.0        1837464056.0        4204654757.0         664239048.0        4190510072.0        2959195122.0        3777646647.0        1837464056.0        4204654757.0         664239048.0        4190510072.0        2959195122.0
Wiener process for Thermostat # 10       1 F T T  -1.1353997679926837E+00        4255804127.0        2763926966.0        4196189818.0         977358279.0        1588989584.0        2458023066.0        4215590817.0        3862461878.0        1087200967.0        1544910132.0         936383720.0        1611370123.0        4215590817.0        3862461878.0        1087200967.0        1544910132.0         936383720.0        1611370123.0
Wiener process for Thermostat # 11       1 F T T   6.8093860794941186E-01        1784991032.0        3758776391.0         591487755.0          71809359.0         109799467.0        2522503587.0        1683636369.0         362165168.0         814316280.0         869382050.0         980203903.0        2062101717.0        1683636369.0         362165168.0         814316280.0         869382050.0         980203903.0        2062101717.0
Wiener process for Thermostat # 12       1 F T T  -1.9187892385849772E-01        2765629384.0        3877144953.0        3513418613.0        1946742207.0        2450054410.0        1820211565.0         272317999.0         166758548.0         310112982.0         201045826.0        1680231254.0         118290799.0         272317999.0         166758548.0         310112982.0         201045826.0        1680231254.0         118290799.0
Wiener process for Thermostat # 13       1 F T T  -9.2376188379047319E-01        1481539482.0        3566722749.0        3106530084.0        1009853377.0        1503213730.0        3286072819.0        2245755202.0        1652682525.0        2865544364.0         721509566.0         209733568.0         592362218.0        2245755202.0        1652682525.0        2865544364.0         721509566.0         209733568.0         592362218.0