 # Version information for this restart file 
 # current date 2024-11-21 21:32:14.422
 # current working dir /home/yhp2008/comp-lab-class-2024/Week12-IntroAIMD/Proton
 # Program compiled at                              Sat Dec 12 18:27:15 EST 2020
 # Program compiled on                                         cs001.nyu.cluster
 # Program compiled for                                                nyu-intel
 # Source code revision number                                       git:8c64c6e
 &GLOBAL
   PRINT_LEVEL  LOW
   PROJECT_NAME proton_aimd_1ns_every0.5fs
   RUN_TYPE  MD
   WALLTIME 21600
 &END GLOBAL
 &MOTION
   &GEO_OPT
     OPTIMIZER  BFGS
     MAX_ITER  100
     MAX_DR     3.0000000000000001E-03
     &BFGS
     &END BFGS
   &END GEO_OPT
   &MD
     ENSEMBLE  NVT
     STEPS  2000
     TIMESTEP     4.9999999999999994E-01
     STEP_START_VAL  42
     TIME_START_VAL     2.1000000000000011E+01
     ECONS_START_VAL    -1.1026316107807854E+03
     TEMPERATURE     3.0000000000000000E+02
     &THERMOSTAT
       TYPE  GLE
       REGION  MASSIVE
       &GLE
         NDIM  5
         A_SCALE     1.0000000000000000E+00
         A_LIST     1.8595758612559999E+02    2.7263853498399998E-01    1.1526100454610001E+01   -3.6414578262600003E+01 \
             2.3173375816020001E+02
         A_LIST    -2.7809524712060002E-01    8.5951591808710006E-05    7.2189048017650004E-01   -1.9844539343859999E-01 \
             4.2409257583420001E-01
         A_LIST    -1.4825808131210000E+01   -7.2189048017650004E-01    1.3590902121280000E+00    5.1498896280349999E+00 \
            -9.9949268450990001E+00
         A_LIST    -1.0372189126880000E+01    1.9844539343859999E-01   -5.1498896280349999E+00    2.6661910891169999E+01 \
             1.1507715495310000E+01
         A_LIST     2.1801346360420001E+02   -4.2409257583420001E-01    9.9949268450990001E+00   -1.1507715495310000E+01 \
             3.0958394565589998E+02
         &THERMOSTAT_ENERGY
              -1.4543729734736905E-03
              -2.2135817859945229E-04
               1.3149687334300842E-04
              -1.7728100923401517E-03
              -9.8420959194501232E-04
               9.2808057870485223E-04
               1.9493053890224301E-04
               1.7206133974070651E-03
               9.0909703364755120E-04
              -1.2131305281152648E-04
               4.6529442761749566E-04
              -1.4282445610979979E-03
               2.3367777201068482E-03
               4.9193272187924165E-04
               1.1047751488098187E-03
               4.1507197322500551E-04
               1.0251582878134847E-04
               8.8999049432844223E-04
              -2.9308339473886494E-04
               9.2228538881186195E-04
              -1.8844649084729750E-03
               1.5692827268723793E-03
              -6.5815051106258172E-04
              -1.0817670413479042E-03
               4.8310855595642109E-04
              -1.4244301431756042E-03
               2.8800019716456707E-04
               2.0981865711750735E-03
               1.8676441623677333E-03
               1.8622701541348861E-03
               2.6571691195148347E-02
               9.2938837187082467E-03
               9.1231426893014049E-03
               2.2095884904860703E-03
               5.3545788912298135E-03
               3.6280661456104053E-03
               6.0934800970216042E-04
              -1.3762314822859012E-04
               1.1583990050633737E-04
               7.5379936582445567E-04
              -1.7254610637001682E-03
              -3.2438924567707553E-03
              -2.5582761861419404E-03
               1.6992104458691062E-03
              -2.5042388141877673E-03
               2.1783433202352269E-03
               5.7425144784064761E-04
              -1.9580818698205563E-03
               1.6764359973212490E-03
              -4.7522152735147538E-05
              -7.6897235694875716E-04
              -3.3495371787221055E-04
              -8.0968700336986462E-04
              -5.1318571274876559E-04
              -1.0661514698003115E-03
              -6.8981786841422238E-04
               2.1517740506021051E-04
               1.0450904163057057E-04
              -1.4675161618931134E-03
              -2.7190101646618026E-04
              -1.2717575002277421E-03
               1.0643045264731520E-03
              -5.1666469569994623E-04
               1.3164897896264394E-03
              -1.7238122837602737E-03
               1.1486445346422364E-03
              -5.3273135757400452E-04
              -2.6675895891612340E-04
               1.5721381173943890E-03
               4.2441947713500229E-04
              -8.7345691696042631E-04
               2.3842978695985204E-03
              -1.1922326448998385E-03
               3.8006341834102744E-04
               2.3166402547426866E-04
              -3.8329565054198407E-04
               6.4258745047967116E-04
               1.3217290257799938E-03
               3.2896106994347420E-03
              -3.8518563990365374E-04
               1.3080150503275511E-04
              -1.7615191813034233E-06
               4.0487644225953745E-04
               1.0231925480152681E-04
               2.1108745557262557E-04
               1.5025598934326548E-04
              -9.9128001090497439E-04
              -2.9679521821903023E-04
              -6.7548668012834686E-04
              -9.4968699306610118E-04
               2.1437579627134867E-03
               3.1290305470740879E-03
              -1.3309515278700696E-03
              -1.0164104800808110E-03
              -1.0191183142160185E-03
              -4.2793251907632035E-04
               8.1572591056821214E-05
              -2.0160756513129437E-03
               1.1659376755310362E-03
               3.0217237757168233E-04
              -4.2253198117558378E-04
               1.3829213835740250E-04
              -1.0399863048124115E-03
               2.6728770425804970E-03
              -4.9997887017859703E-04
               6.8161424851004673E-04
               5.6690556286393724E-04
               5.6516384693279055E-05
               1.7150412038765838E-03
               2.2642503701543742E-04
               4.1770676135047155E-04
               7.9428524480969741E-04
               1.2909933156240942E-03
               4.4365223052061795E-04
              -1.8141608221587564E-03
              -2.4964813311780345E-04
              -8.4728331333432487E-03
               1.3702726502700230E-03
               3.8470618722611895E-04
               7.2015049975224829E-04
              -5.4543999926703868E-04
              -9.2917173628714335E-04
               2.6535205892053355E-03
              -7.1406663923918238E-04
              -1.6488274222733334E-04
              -2.2349704741704340E-03
              -8.1375534926161213E-04
               2.2161821914044515E-03
               3.2709862244341086E-05
               4.9427557039736060E-05
              -1.6807083045395467E-03
              -2.2612169251974013E-03
               2.0769933371320871E-03
               3.2998092072778542E-04
              -1.4889220160599344E-03
               6.7548746476413788E-04
               1.7586143321774301E-04
               4.3624574061240358E-04
               7.1242965802312068E-04
               2.9806118690400125E-04
               2.2230924061624161E-03
               4.1091388791473279E-04
              -1.1373215361340739E-03
               4.3734415881618258E-04
               1.0038036029924936E-03
              -5.7497677140462776E-05
              -9.1801476452664944E-05
              -3.9448040663437868E-04
               2.4690507017253993E-04
               3.2959344906716289E-04
               2.5352804267249107E-04
              -2.9732204384155580E-04
              -3.3466150293074651E-04
               7.2530180911244482E-04
               1.2921165830613216E-04
              -4.3320859655389339E-05
              -1.1117551471476642E-04
              -2.2517842377938789E-04
               6.9797132290408306E-05
              -4.5269885745078710E-04
              -9.6115335282563412E-04
              -1.7079534451262947E-03
              -1.4556294608738672E-03
               4.3927398164190476E-04
               2.3346939123942093E-03
              -4.0240834493551715E-04
               9.7335836669325412E-04
               9.8606007097294061E-04
              -3.0707938915603716E-03
               9.6740234260976436E-04
               3.3134440632443343E-04
              -1.4194710705252528E-04
              -3.0916500216408345E-04
              -8.9912757878229108E-04
              -4.1478037728953448E-04
               2.0242838387457025E-04
               3.1676963167549285E-03
              -4.5602763670403250E-04
               1.0457891960006485E-03
               1.8276570049483680E-03
              -3.2265587901721205E-05
              -1.0537773288650098E-04
               7.3789408218358167E-04
               1.4394749656791643E-03
               6.3362236267811283E-04
               2.6896816023435569E-04
              -1.1877932315909273E-03
              -4.7818655540596354E-04
              -2.4129656310205479E-03
               6.4825885037495348E-04
               4.3534925604454881E-04
              -3.7546802384886874E-04
               1.0548410794548727E-03
              -9.2931912110074517E-04
              -2.8728871605170352E-04
              -4.0335155727719892E-03
              -1.1146223503368587E-04
               6.4953626391088775E-04
               1.0111631095618013E-04
              -8.7799497695832695E-04
               5.8829283181675081E-04
               5.1296662991344758E-06
               1.2060916023975236E-03
               3.0512143482525701E-04
              -2.5578248278978390E-03
              -2.0853756900652892E-04
               1.0468989643480527E-03
               8.6762915063403495E-04
               3.9772319219647662E-05
               3.8492606895758970E-03
              -9.1816743941809382E-04
               5.9153045192455122E-04
               2.3906865168955857E-03
              -2.1381109609424722E-03
               2.1430073289617041E-04
               9.2659036273156758E-04
              -2.1535277926844152E-03
               6.8624063416946549E-04
               7.1836699046169108E-04
              -7.7427343517204837E-04
               1.6481482314181452E-03
              -1.1017935315381603E-03
               1.5233635627561440E-03
               1.6636397850963266E-04
              -3.5905214895667447E-04
               5.0786097798231921E-04
               8.4759869553192218E-04
               1.3120832936357557E-04
              -2.1372530141639369E-04
               3.5109283317992794E-03
              -5.3003988691077827E-05
               1.4951795032297779E-03
               1.7885035577065215E-04
               2.3171912507508437E-04
               3.1165073361626850E-05
              -1.0650026270206674E-03
              -1.8535998821544437E-03
              -9.3378134479165162E-05
               3.3506944557479685E-04
               3.9428982139176031E-04
               1.3317894765491659E-03
              -6.3584728191362494E-05
               1.6412531477565141E-03
               1.3366659801630919E-03
               5.2789291729483934E-04
              -4.3009034826353145E-04
              -2.7358367924429274E-04
               8.1538626071400863E-04
              -4.0230632715379153E-05
              -1.9094529428071402E-03
               1.1172126729256768E-03
               7.0322860387989246E-04
              -7.2464855565751158E-04
               3.7003097478474227E-04
              -9.1464161653933575E-04
              -5.9373876330374238E-04
              -5.1917928294599176E-04
              -3.6258277677224523E-04
               2.1038793947904326E-04
              -5.7143362215474904E-04
              -3.4217827411380322E-04
               4.4128747821416109E-04
              -7.9329036288927819E-04
               1.5986690200407872E-03
               1.5081493328088775E-03
               4.9639664024180236E-04
              -9.9084923518859150E-04
              -1.2098163260441652E-04
               3.1794636645745807E-05
              -1.9588056241735185E-03
               5.5234654443481185E-05
               1.9869601873135463E-04
               9.2496495668734275E-04
              -5.0104004916788386E-04
              -1.2083658288716298E-03
               1.0919231728884898E-03
              -8.0690341282959872E-04
              -3.6634709968839160E-05
              -3.8018655307083449E-04
               1.1696136232041101E-04
              -3.4871392280480941E-04
              -4.5458597068534203E-04
               2.2262537986940010E-04
               1.7260484630008332E-04
              -5.5040352431427774E-04
               2.6864167078201079E-04
              -1.3727828310684228E-03
              -2.1848823506451459E-04
              -3.2673559271410700E-04
              -7.7864717247080406E-04
              -2.6342305088231494E-03
               2.0981638244206239E-03
              -1.9591820940549768E-03
              -3.6823821344044816E-04
               1.2131513465863007E-03
               1.3370880426051335E-04
              -1.2208256207524347E-04
               1.4847897555504241E-04
              -5.9653029410396390E-04
               5.8751791604015992E-04
               1.5950005399995165E-03
               6.3379739096330336E-04
              -4.8309149503614147E-04
              -6.0570534023093522E-04
               2.5007524146714853E-03
              -1.3369647409656777E-03
              -4.7713669931067335E-04
               5.9336551659679496E-04
              -4.0267038495926484E-06
              -1.4809501789894995E-04
              -1.2275698789539738E-03
              -5.9709079895231706E-04
               2.1826736293131125E-03
               5.1525492775589949E-04
               1.1862123709987977E-03
               8.2780071193297217E-04
              -1.0293906042790309E-04
               1.4575581209749799E-03
              -6.7000984652313474E-04
              -4.9266021066711148E-04
               2.1280563519804568E-04
              -1.4101535482727876E-03
               3.4855154763989828E-04
              -6.2742122836175027E-04
               1.9216057499653618E-03
               9.9158868395719021E-04
               3.2729500165411512E-04
               1.8634474134774327E-03
              -7.7397044678791452E-04
              -1.7276477644289636E-03
              -2.5820370985245450E-03
              -4.9857683060509873E-04
               9.0403015967784907E-04
               1.6922908984422960E-03
               6.2452978486302372E-04
               7.9878230337666477E-04
               3.8110299416598448E-03
               2.1798244941522030E-03
              -1.4168192721448981E-03
               1.0506632831758609E-03
               2.6831295162670673E-04
              -5.0821972712307114E-04
               1.6432666383828448E-03
               3.4902149093071191E-04
               5.4459219950006999E-04
               1.3215479167587871E-03
              -3.0885651591833126E-04
              -5.2496720849270692E-04
              -7.7540721460078559E-04
               6.5004457560937712E-04
               2.9125846557389744E-04
               2.4175336902040141E-04
              -2.6376055812031969E-04
               3.4022113377717590E-04
               2.1316460616145001E-04
              -2.7675252711970902E-03
               1.0383764935790415E-03
              -1.3271949341827180E-03
              -1.0491986082751634E-03
               9.7829015754630146E-04
              -6.9443096532990033E-04
              -3.2510983300091452E-04
              -3.2634575389929246E-04
              -1.1567191189332002E-03
               1.7370237551819988E-03
              -9.6676771576615852E-05
               1.4865849517622222E-03
               1.7278382795942127E-05
              -1.5945588861418956E-03
              -9.1853489591899940E-04
               1.9910432789436712E-05
              -4.3927934404915331E-04
               2.2253658016757969E-03
               2.9514166722859005E-04
              -1.7266607106112522E-03
              -4.1178757533403155E-03
               2.0999432986942256E-03
              -3.7452463951879794E-04
               9.2084619345434110E-04
               1.3469482059989559E-03
               4.1847768165913799E-04
              -9.5922349726998890E-04
               2.4564988153297522E-04
               1.4959060574819935E-03
              -3.5232374036366248E-03
               4.7258778021230606E-04
               8.3462379089181563E-05
              -3.0319734553721938E-03
              -2.1492497732764097E-03
               3.2853013667101701E-04
               8.8884423869287229E-04
               7.8005613003520038E-04
              -3.4779477631641711E-03
              -1.1517973441213802E-03
              -1.0759023348847218E-03
              -1.4141085700490794E-03
              -1.7377912220828064E-03
               1.0364627465830863E-03
              -1.1219320410224901E-03
               3.1221190018181338E-04
              -3.5512616883431147E-03
               2.6842896673867937E-03
               3.9011051255084431E-04
               1.1806163197559040E-03
              -4.4296922889866297E-04
               1.9949909894220662E-04
              -1.5640702971886616E-03
               6.1297520677346053E-04
              -1.0425007639267914E-04
              -5.4740049073864142E-04
              -6.0408119268246636E-04
               7.4908183691781659E-04
               3.3843350591538285E-04
               1.0112966791271623E-03
              -6.1169478584227534E-04
              -1.1806113320079526E-04
               9.6635305884856652E-04
              -2.2888318237855273E-05
               5.7667568851562127E-04
              -7.1262028942263252E-04
               1.1290095839573129E-03
              -1.9374217417369275E-03
               1.1621726811658663E-03
               2.9446947711730651E-02
               1.7835922498378596E-02
               1.0403595848266101E-02
               2.0518024118273076E-03
              -1.4987260732673350E-03
               2.7449814651487026E-03
               8.3384677744126519E-04
               8.4869538373766882E-04
               4.9357654844641025E-03
               1.0737569888758583E-02
               1.3513036344476502E-02
               1.3007459246814127E-03
               1.2497740160886607E-03
              -5.3711431390996193E-04
               9.3750786512226782E-05
              -4.1479024441909597E-04
               6.0837772473685463E-04
              -4.9254567164607637E-04
              -2.9852837441714545E-03
              -1.4532056292396495E-03
              -1.1620515305129074E-03
              -9.3328980193008778E-04
              -2.1370501566947821E-04
               3.5315797401501458E-04
              -5.8455730262340754E-04
               2.8424312107082805E-03
               8.1113436432883146E-04
               1.2246457018969584E-03
              -2.7106862501463840E-03
               2.1833667636587889E-03
               8.5009757297098009E-04
               1.8181979281588732E-04
              -3.3037010948991716E-05
               5.7561617850004692E-05
              -7.0193562693931046E-04
               2.0805792652959054E-03
              -5.4562335839173498E-04
               4.0975579340154654E-04
              -7.5637492446104578E-04
              -2.9798074764548297E-03
              -5.5767523982806994E-04
               2.4691829564503520E-03
              -2.2752606528112437E-03
              -8.6378039730953811E-04
              -4.5856396649745904E-04
               2.1019534978311640E-03
               2.7533385960391882E-03
              -9.1344184858688259E-04
               8.4711036885990127E-04
               1.0486807019590154E-03
               3.2606608522668499E-04
               2.9751748623639128E-04
               1.0677506891915590E-03
               7.2124463664428472E-04
              -3.6976281856025478E-05
              -3.6854701092894394E-04
               1.1824570204643132E-03
               3.1751075331612620E-03
               1.7715578332215190E-04
               2.1854117747197145E-03
               3.7528222204890964E-03
              -2.9109007021635230E-04
              -4.8147007126735211E-04
              -2.2080206289577659E-03
              -1.6403199912147484E-03
               3.3765504615562540E-04
               5.0451023117267530E-04
               1.7304034144597052E-04
              -4.3287104653607158E-04
               2.5737873693724051E-04
              -5.2406275951908114E-04
               2.3154078687526581E-04
               9.4316503531290076E-04
               5.0543573264829542E-03
               2.4687715178096114E-03
              -4.4248881713826937E-04
              -8.3803585617524105E-04
               1.1897976868969457E-04
               3.4331621170116829E-04
               7.0219464660289921E-04
               8.6582272919141236E-04
               8.0164933297784536E-04
              -1.8078279508869674E-03
              -1.0673533149769584E-03
               9.1351777878061506E-04
              -1.4767255681466946E-04
              -4.9825809666055154E-04
               7.0947174357660527E-04
               3.2860068303894102E-04
              -8.1877592859944288E-04
              -1.8102697389831506E-04
               2.3844515716905084E-03
              -7.8602523521477852E-04
              -4.2278499342118120E-04
               3.8587722716570136E-03
               1.7341184578422008E-03
              -5.0995535396923324E-05
               3.9763847417221887E-04
               1.0350553094902459E-03
               1.5882364956912288E-04
              -2.2095357943880739E-03
               2.9966497170692531E-04
              -7.4798768150998471E-04
               4.4155753182417443E-03
               2.3885288371397260E-03
               2.8265840392982765E-03
              -1.7403389890130233E-04
               2.3398661973211214E-04
              -2.0892599715007080E-03
               1.2565181974654471E-03
              -1.8011527818747488E-03
               1.0314228027579146E-03
               2.7012623937654304E-04
              -3.5661919295326266E-04
               3.2106547215849811E-04
               3.7547787538628758E-04
              -1.0581371109281968E-03
              -8.6578386336051444E-04
              -4.0986711632945124E-03
              -1.6053017800405999E-04
              -2.7175556119544010E-04
              -1.4745111538159558E-04
              -2.1783155378992639E-04
              -3.2141062180044913E-04
               1.2822592837884528E-04
               9.9895613472651213E-04
               1.2706128108089562E-03
               3.5433776982973667E-04
              -9.1491427839655566E-04
              -4.3078669938125674E-04
              -5.6851177477740874E-04
              -4.6176466968653694E-04
              -4.1325636591404624E-03
               3.5194497069051334E-03
              -6.1044117510161006E-04
               4.0615330061542871E-03
               1.8377417429939161E-03
               1.6063814707245737E-03
               2.4680267748248687E-03
              -5.7199268490651823E-05
               1.4463929825733600E-03
              -5.4339322498914242E-04
              -1.3782808898337804E-03
              -6.3056205588527480E-04
              -1.4667948559950396E-03
               3.5821899317549464E-04
               1.3909337503010931E-04
              -2.1631446717582659E-03
               1.8847624169456990E-03
               5.3196287120250399E-04
              -3.4381660182092257E-04
               2.4760426856080516E-03
              -1.5262771379880859E-03
               1.6376505118915440E-03
              -6.3110126255334659E-04
               9.1852979558390937E-04
         &END THERMOSTAT_ENERGY
         &RNG_INIT
Wiener process for Thermostat # 1        1 F T T   1.3758296744574177E+00        2345899633.0        2475840007.0        1651852745.0        2661075586.0        3447172933.0         482827207.0             12345.0             12345.0             12345.0             12345.0             12345.0             12345.0             12345.0             12345.0             12345.0             12345.0             12345.0             12345.0
Wiener process for Thermostat # 2        1 F T T   9.2481627706716932E-02        4262722292.0        3407870468.0        2470426045.0         268001164.0        1073755976.0        3071498140.0        3692455944.0        1366884236.0        2968912127.0         335948734.0        4161675175.0         475798818.0        3692455944.0        1366884236.0        2968912127.0         335948734.0        4161675175.0         475798818.0
Wiener process for Thermostat # 3        1 F T T  -1.9802357162391013E+00        3038030378.0        2135425884.0         679059967.0        2791345100.0         785740137.0        1052718937.0        1015873554.0        1310354410.0        2249465273.0         994084013.0        2912484720.0        3876682925.0        1015873554.0        1310354410.0        2249465273.0         994084013.0        2912484720.0        3876682925.0
Wiener process for Thermostat # 4        1 F T T  -1.3407999682509619E+00        1628427643.0         266628874.0        2421008600.0         418610537.0        3632600020.0        1706315000.0        2338701263.0        1119171942.0        2570676563.0         317077452.0        3194180850.0         618832124.0        2338701263.0        1119171942.0        2570676563.0         317077452.0        3194180850.0         618832124.0
Wiener process for Thermostat # 5        1 F T T   1.0326215953394764E+00         974767057.0        1953905493.0        3017130085.0        1969277364.0        2489557307.0         130245016.0        1597262096.0        3906379055.0        3312112953.0        1016013135.0        4099474108.0         275305423.0        1597262096.0        3906379055.0        3312112953.0        1016013135.0        4099474108.0         275305423.0
Wiener process for Thermostat # 6        1 F T T   2.4455588151729102E+00        3644402618.0        3604483342.0        2765159661.0        3167958190.0        1030655552.0        1511400326.0          97147054.0        3131372450.0         829345164.0        3691032523.0        3006063034.0        4259826321.0          97147054.0        3131372450.0         829345164.0        3691032523.0        3006063034.0        4259826321.0
Wiener process for Thermostat # 7        1 F T T  -1.2311296376400651E+00        3280323395.0        1812594554.0        2378705163.0        1294684504.0         683369492.0        1134567786.0         796079799.0        2105258207.0         955365076.0        2923159030.0        4116632677.0        3067683584.0         796079799.0        2105258207.0         955365076.0        2923159030.0        4116632677.0        3067683584.0
Wiener process for Thermostat # 8        1 F T T   1.4929809629382016E+00        3261075333.0         618903276.0        2376708279.0        3179784628.0        1620750596.0        1466337138.0        3281794178.0        2616230133.0        1457051261.0        2762791137.0        2480527362.0        2282316169.0        3281794178.0        2616230133.0        1457051261.0        2762791137.0        2480527362.0        2282316169.0
Wiener process for Thermostat # 9        1 F T T   5.7281000302593969E-02        2761013047.0        4024532110.0        4007737923.0        4060634707.0        1828865954.0        1582704800.0        3777646647.0        1837464056.0        4204654757.0         664239048.0        4190510072.0        2959195122.0        3777646647.0        1837464056.0        4204654757.0         664239048.0        4190510072.0        2959195122.0
Wiener process for Thermostat # 10       1 F T T  -1.0255144117271715E+00         608532198.0        1769971907.0        2352972563.0        3550117061.0         455146778.0        1638487494.0        4215590817.0        3862461878.0        1087200967.0        1544910132.0         936383720.0        1611370123.0        4215590817.0        3862461878.0        1087200967.0        1544910132.0         936383720.0        1611370123.0
Wiener process for Thermostat # 11       1 F T T  -5.0043832788217357E-01        1138092919.0        2441914752.0         623267077.0        4141169546.0        2280516970.0        3108148329.0        1683636369.0         362165168.0         814316280.0         869382050.0         980203903.0        2062101717.0        1683636369.0         362165168.0         814316280.0         869382050.0         980203903.0        2062101717.0
Wiener process for Thermostat # 12       1 F T T  -2.1575007849054626E+00         242122383.0        2807449016.0        4039824385.0         371491863.0        1034544241.0        4230433291.0         272317999.0         166758548.0         310112982.0         201045826.0        1680231254.0         118290799.0         272317999.0         166758548.0         310112982.0         201045826.0        1680231254.0         118290799.0
Wiener process for Thermostat # 13       1 F T T  -5.1866303531080127E-01        1833476067.0        3998468721.0        1923072950.0        2300840304.0        3088082126.0         105268293.0        2245755202.0        1652682525.0        2865544364.0         721509566.0         209733568.0         592362218.0        2245755202.0        1652682525.0        2865544364.0         721509566.0         209733568.0         592362218.0